ITEM: TIMESTEP
0
ITEM: NUMBER OF ATOMS
2000
ITEM: BOX BOUNDS pp pp pp
0.0000000000000000e+00 1.1869514044823584e+01
0.0000000000000000e+00 1.1869514044823584e+01
0.0000000000000000e+00 2.3739028089647167e+01
ITEM: ATOMS id type x y z vx vy vz
1 1 0.13188349 0.13188349 0.00397237 0 0 0
2 1 0.39565047 0.13188349 0.01192421 0 0 0
3 1 0.65941745 0.13188349 0.01988554 0 0 0
4 1 0.92318443 0.13188349 0.02785637 0 0 0
5 1 1.18695140 0.13188349 0.03583675 0 0 0
6 1 1.45071838 0.13188349 0.04382668 0 0 0
7 1 1.71448536 0.13188349 0.05182619 0 0 0
8 1 1.97825234 0.13188349 0.05983530 0 0 0
9 1 2.24201932 0.13188349 0.06785404 0 0 0
10 1 2.50578630 0.13188349 0.07588243 0 0 0
11 1 2.76955328 0.13188349 0.08392049 0 0 0
12 1 3.03332026 0.13188349 0.09196824 0 0 0
13 1 3.29708723 0.13188349 0.10002570 0 0 0
14 1 3.56085421 0.13188349 0.10809290 0 0 0
15 1 3.82462119 0.13188349 0.11616985 0 0 0
16 1 4.08838817 0.13188349 0.12425658 0 0 0
17 1 4.35215515 0.13188349 0.13235311 0 0 0
18 1 4.61592213 0.13188349 0.14045944 0 0 0
19 1 4.87968911 0.13188349 0.14857562 0 0 0
20 1 5.14345609 0.13188349 0.15670164 0 0 0
21 1 5.40722306 0.13188349 0.16483754 0 0 0
22 1 5.67099004 0.13188349 0.17298333 0 0 0
23 1 5.93475702 0.13188349 0.18113902 0 0 0
24 1 6.19852400 0.13188349 0.18930465 0 0 0
25 1 6.46229098 0.13188349 0.19748021 0 0 0
26 1 6.72605796 0.13188349 0.20566573 0 0 0
27 1 6.98982494 0.13188349 0.21386123 0 0 0
28 1 7.25359192 0.13188349 0.22206672 0 0 0
29 1 7.51735890 0.13188349 0.23028222 0 0 0
30 1 7.78112587 0.13188349 0.23850774 0 0 0
31 1 8.04489285 0.13188349 0.24674330 0 0 0
32 1 8.30865983 0.13188349 0.25498891 0 0 0
33 1 8.57242681 0.13188349 0.26324458 0 0 0
34 1 8.83619379 0.13188349 0.27151034 0 0 0
35 1 9.09996077 0.13188349 0.27978618 0 0 0
36 1 9.36372775 0.13188349 0.28807214 0 0 0
37 1 9.62749473 0.13188349 0.29636821 0 0 0
38 1 9.89126170 0.13188349 0.30467441 0 0 0
39 1 10.15502868 0.13188349 0.31299075 0 0 0
40 1 10.41879566 0.13188349 0.32131724 0 0 0
41 1 10.68256264 0.13188349 0.32965390 0 0 0
42 1 10.94632962 0.13188349 0.33800073 0 0 0
43 1 11.21009660 0.13188349 0.34635774 0 0 0
44 1 11.47386358 0.13188349 0.35472494 0 0 0
45 1 11.73763056 0.13188349 0.36310235 0 0 0
46 1 0.13188349 0.39565047 0.37148996 0 0 0
47 1 0.39565047 0.39565047 0.37988779 0 0 0
48 1 0.65941745 0.39565047 0.38829584 0 0 0
49 1 0.92318443 0.39565047 0.39671412 0 0 0
50 1 1.18695140 0.39565047 0.40514264 0 0 0
51 1 1.45071838 0.39565047 0.41358141 0 0 0
52 1 1.71448536 0.39565047 0.42203042 0 0 0
53 1 1.97825234 0.39565047 0.43048969 0 0 0
54 1 2.24201932 0.39565047 0.43895921 0 0 0
55 1 2.50578630 0.39565047 0.44743899 0 0 0
56 1 2.76955328 0.39565047 0.45592904 0 0 0
57 1 3.03332026 0.39565047 0.46442936 0 0 0
58 1 3.29708723 0.39565047 0.47293995 0 0 0
59 1 3.56085421 0.39565047 0.48146081 0 0 0
60 1 3.82462119 0.39565047 0.48999195 0 0 0
61 1 4.08838817 0.39565047 0.49853335 0 0 0
62 1 4.35215515 0.39565047 0.50708504 0 0 0
63 1 4.61592213 0.39565047 0.51564699 0 0 0
64 1 4.87968911 0.39565047 0.52421922 0 0 0
65 1 5.14345609 0.39565047 0.53280173 0 0 0
66 1 5.40722306 0.39565047 0.54139450 0 0 0
67 1 5.67099004 0.39565047 0.54999754 0 0 0
68 1 5.93475702 0.39565047 0.55861084 0 0 0
69 1 6.19852400 0.39565047 0.56723441 0 0 0
70 1 6.46229098 0.39565047 0.57586823 0 0 0
71 1 6.72605796 0.39565047 0.58451231 0 0 0
72 1 6.98982494 0.39565047 0.59316663 0 0 0
73 1 7.25359192 0.39565047 0.60183119 0 0 0
74 1 7.51735890 0.39565047 0.61050599 0 0 0
75 1 7.78112587 0.39565047 0.61919101 0 0 0
76 1 8.04489285 0.39565047 0.62788625 0 0 0
77 1 8.30865983 0.39565047 0.63659171 0 0 0
78 1 8.57242681 0.39565047 0.64530737 0 0 0
79 1 8.83619379 0.39565047 0.65403322 0 0 0
80 1 9.09996077 0.39565047 0.66276926 0 0 0
81 1 9.36372775 0.39565047 0.67151547 0 0 0
82 1 9.62749473 0.39565047 0.68027184 0 0 0
83 1 9.89126170 0.39565047 0.68903837 0 0 0
84 1 10.15502868 0.39565047 0.69781503 0 0 0
85 1 10.41879566 0.39565047 0.70660181 0 0 0
86 1 10.68256264 0.39565047 0.71539871 0 0 0
87 1 10.94632962 0.39565047 0.72420571 0 0 0
88 1 11.21009660 0.39565047 0.73302279 0 0 0
89 1 11.47386358 0.39565047 0.74184994 0 0 0
90 1 11.73763056 0.39565047 0.75068714 0 0 0
91 1 0.13188349 0.65941745 0.75953437 0 0 0
92 1 0.39565047 0.65941745 0.76839162 0 0 0
93 1 0.65941745 0.65941745 0.77725888 0 0 0
94 1 0.92318443 0.65941745 0.78613611 0 0 0
95 1 1.18695140 0.65941745 0.79502331 0 0 0
96 1 1.45071838 0.65941745 0.80392046 0 0 0
97 1 1.71448536 0.65941745 0.81282752 0 0 0
98 1 1.97825234 0.65941745 0.82174449 0 0 0
99 1 2.24201932 0.65941745 0.83067134 0 0 0
100 1 2.50578630 0.65941745 0.83960805 0 0 0
101 1 2.76955328 0.65941745 0.84855460 0 0 0
102 1 3.03332026 0.65941745 0.85751096 0 0 0
103 1 3.29708723 0.65941745 0.86647711 0 0 0
104 1 3.56085421 0.65941745 0.87545303 0 0 0
105 1 3.82462119 0.65941745 0.88443869 0 0 0
106 1 4.08838817 0.65941745 0.89343406 0 0 0
107 1 4.35215515 0.65941745 0.90243912 0 0 0
108 1 4.61592213 0.65941745 0.91145384 0 0 0
109 1 4.87968911 0.65941745 0.92047819 0 0 0
110 1 5.14345609 0.65941745 0.92951215 0 0 0
111 1 5.40722306 0.65941745 0.93855569 0 0 0
112 1 5.67099004 0.65941745 0.94760878 0 0 0
113 1 5.93475702 0.65941745 0.95667138 0 0 0
114 1 6.19852400 0.65941745 0.96574347 0 0 0
115 1 6.46229098 0.65941745 0.97482502 0 0 0
116 1 6.72605796 0.65941745 0.98391599 0 0 0
117 1 6.98982494 0.65941745 0.99301636 0 0 0
118 1 7.25359192 0.65941745 1.00212608 0 0 0
119 1 7.51735890 0.65941745 1.01124514 0 0 0
120 1 7.78112587 0.65941745 1.02037348 0 0 0
121 1 8.04489285 0.65941745 1.02951109 0 0 0
122 1 8.30865983 0.65941745 1.03865791 0 0 0
123 1 8.57242681 0.65941745 1.04781393 0 0 0
124 1 8.83619379 0.65941745 1.05697909 0 0 0
125 1 9.09996077 0.65941745 1.06615337 0 0 0
126 1 9.36372775 0.65941745 1.07533673 0 0 0
127 1 9.62749473 0.65941745 1.08452912 0 0 0
128 1 9.89126170 0.65941745 1.09373052 0 0 0
129 1 10.15502868 0.65941745 1.10294087 0 0 0
130 1 10.41879566 0.65941745 1.11216015 0 0 0
131 1 10.68256264 0.65941745 1.12138832 0 0 0
132 1 10.94632962 0.65941745 1.13062532 0 0 0
133 1 11.21009660 0.65941745 1.13987112 0 0 0
134 1 11.47386358 0.65941745 1.14912569 0 0 0
135 1 11.73763056 0.65941745 1.15838897 0 0 0
136 1 0.13188349 0.92318443 1.16766092 0 0 0
137 1 0.39565047 0.92318443 1.17694151 0 0 0
138 1 0.65941745 0.92318443 1.18623068 0 0 0
139 1 0.92318443 0.92318443 1.19552840 0 0 0
140 1 1.18695140 0.92318443 1.20483461 0 0 0
141 1 1.45071838 0.92318443 1.21414928 0 0 0
142 1 1.71448536 0.92318443 1.22347236 0 0 0
143 1 1.97825234 0.92318443 1.23280380 0 0 0
144 1 2.24201932 0.92318443 1.24214356 0 0 0
145 1 2.50578630 0.92318443 1.25149159 0 0 0
146 1 2.76955328 0.92318443 1.26084784 0 0 0
147 1 3.03332026 0.92318443 1.27021227 0 0 0
148 1 3.29708723 0.92318443 1.27958482 0 0 0
149 1 3.56085421 0.92318443 1.28896545 0 0 0
150 1 3.82462119 0.92318443 1.29835412 0 0 0
151 1 4.08838817 0.92318443 1.30775076 0 0 0
152 1 4.35215515 0.92318443 1.31715533 0 0 0
153 1 4.61592213 0.92318443 1.32656778 0 0 0
154 1 4.87968911 0.92318443 1.33598807 0 0 0
155 1 5.14345609 0.92318443 1.34541613 0 0 0
156 1 5.40722306 0.92318443 1.35485193 0 0 0
157 1 5.67099004 0.92318443 1.36429540 0 0 0
158 1 5.93475702 0.92318443 1.37374649 0 0 0
159 1 6.19852400 0.92318443 1.38320516 0 0 0
160 1 6.46229098 0.92318443 1.39267136 0 0 0
161 1 6.72605796 0.92318443 1.40214502 0 0 0
162 1 6.98982494 0.92318443 1.41162609 0 0 0
163 1 7.25359192 0.92318443 1.42111454 0 0 0
164 1 7.51735890 0.92318443 1.43061029 0 0 0
165 1 7.78112587 0.92318443 1.44011329 0 0 0
166 1 8.04489285 0.92318443 1.44962350 0 0 0
167 1 8.30865983 0.92318443 1.45914086 0 0 0
168 1 8.57242681 0.92318443 1.46866531 0 0 0
169 1 8.83619379 0.92318443 1.47819680 0 0 0
170 1 9.09996077 0.92318443 1.48773527 0 0 0
171 1 9.36372775 0.92318443 1.49728067 0 0 0
172 1 9.62749473 0.92318443 1.50683295 0 0 0
173 1 9.89126170 0.92318443 1.51639205 0 0 0
174 1 10.15502868 0.92318443 1.52595791 0 0 0
175 1 10.41879566 0.92318443 1.53553048 0 0 0
176 1 10.68256264 0.92318443 1.54510970 0 0 0
177 1 10.94632962 0.92318443 1.55469551 0 0 0
178 1 11.21009660 0.92318443 1.56428787 0 0 0
179 1 11.47386358 0.92318443 1.57388671 0 0 0
180 1 11.73763056 0.92318443 1.58349198 0 0 0
181 1 0.13188349 1.18695140 1.59310362 0 0 0
182 1 0.39565047 1.18695140 1.60272158 0 0 0
183 1 0.65941745 1.18695140 1.61234580 0 0 0
184 1 0.92318443 1.18695140 1.62197622 0 0 0
185 1 1.18695140 1.18695140 1.63161279 0 0 0
186 1 1.45071838 1.18695140 1.64125545 0 0 0
187 1 1.71448536 1.18695140 1.65090414 0 0 0
188 1 1.97825234 1.18695140 1.66055881 0 0 0
189 1 2.24201932 1.18695140 1.67021940 0 0 0
190 1 2.50578630 1.18695140 1.67988586 0 0 0
191 1 2.76955328 1.18695140 1.68955813 0 0 0
192 1 3.03332026 1.18695140 1.69923614 0 0 0
193 1 3.29708723 1.18695140 1.70891986 0 0 0
194 1 3.56085421 1.18695140 1.71860921 0 0 0
195 1 3.82462119 1.18695140 1.72830415 0 0 0
196 1 4.08838817 1.18695140 1.73800462 0 0 0
197 1 4.35215515 1.18695140 1.74771056 0 0 0
198 1 4.61592213 1.18695140 1.75742192 0 0 0
199 1 4.87968911 1.18695140 1.76713864 0 0 0
200 1 5.14345609 1.18695140 1.77686066 0 0 0
201 1 5.40722306 1.18695140 1.78658794 0 0 0
202 1 5.67099004 1.18695140 1.79632042 0 0 0
203 1 5.93475702 1.18695140 1.80605803 0 0 0
204 1 6.19852400 1.18695140 1.81580073 0 0 0
205 1 6.46229098 1.18695140 1.82554847 0 0 0
206 1 6.72605796 1.18695140 1.83530118 0 0 0
207 1 6.98982494 1.18695140 1.84505882 0 0 0
208 1 7.25359192 1.18695140 1.85482132 0 0 0
209 1 7.51735890 1.18695140 1.86458865 0 0 0
210 1 7.78112587 1.18695140 1.87436074 0 0 0
211 1 8.04489285 1.18695140 1.88413754 0 0 0
212 1 8.30865983 1.18695140 1.89391900 0 0 0
213 1 8.57242681 1.18695140 1.90370507 0 0 0
214 1 8.83619379 1.18695140 1.91349569 0 0 0
215 1 9.09996077 1.18695140 1.92329081 0 0 0
216 1 9.36372775 1.18695140 1.93309039 0 0 0
217 1 9.62749473 1.18695140 1.94289436 0 0 0
218 1 9.89126170 1.18695140 1.95270269 0 0 0
219 1 10.15502868 1.18695140 1.96251532 0 0 0
220 1 10.41879566 1.18695140 1.97233219 0 0 0
221 1 10.68256264 1.18695140 1.98215327 0 0 0
222 1 10.94632962 1.18695140 1.99197850 0 0 0
223 1 11.21009660 1.18695140 2.00180783 0 0 0
224 1 11.47386358 1.18695140 2.01164122 0 0 0
225 1 11.73763056 1.18695140 2.02147862 0 0 0
226 1 0.13188349 1.45071838 2.03131997 0 0 0
227 1 0.39565047 1.45071838 2.04116524 0 0 0
228 1 0.65941745 1.45071838 2.05101437 0 0 0
229 1 0.92318443 1.45071838 2.06086733 0 0 0
230 1 1.18695140 1.45071838 2.07072406 0 0 0
231 1 1.45071838 1.45071838 2.08058452 0 0 0
232 1 1.71448536 1.45071838 2.09044867 0 0 0
233 1 1.97825234 1.45071838 2.10031646 0 0 0
234 1 2.24201932 1.45071838 2.11018784 0 0 0
235 1 2.50578630 1.45071838 2.12006278 0 0 0
236 1 2.76955328 1.45071838 2.12994124 0 0 0
237 1 3.03332026 1.45071838 2.13982317 0 0 0
238 1 3.29708723 1.45071838 2.14970852 0 0 0
239 1 3.56085421 1.45071838 2.15959727 0 0 0
240 1 3.82462119 1.45071838 2.16948936 0 0 0
241 1 4.08838817 1.45071838 2.17938476 0 0 0
242 1 4.35215515 1.45071838 2.18928344 0 0 0
243 1 4.61592213 1.45071838 2.19918534 0 0 0
244 1 4.87968911 1.45071838 2.20909044 0 0 0
245 1 5.14345609 1.45071838 2.21899870 0 0 0
246 1 5.40722306 1.45071838 2.22891008 0 0 0
247 1 5.67099004 1.45071838 2.23882454 0 0 0
248 1 5.93475702 1.45071838 2.24874205 0 0 0
249 1 6.19852400 1.45071838 2.25866257 0 0 0
250 1 6.46229098 1.45071838 2.26858608 0 0 0
251 1 6.72605796 1.45071838 2.27851253 0 0 0
252 1 6.98982494 1.45071838 2.28844189 0 0 0
253 1 7.25359192 1.45071838 2.29837413 0 0 0
254 1 7.51735890 1.45071838 2.30830923 0 0 0
255 1 7.78112587 1.45071838 2.31824714 0 0 0
256 1 8.04489285 1.45071838 2.32818785 0 0 0
257 1 8.30865983 1.45071838 2.33813131 0 0 0
258 1 8.57242681 1.45071838 2.34807750 0 0 0
259 1 8.83619379 1.45071838 2.35802640 0 0 0
260 1 9.09996077 1.45071838 2.36797797 0 0 0
261 1 9.36372775 1.45071838 2.37793219 0 0 0
262 1 9.62749473 1.45071838 2.38788903 0 0 0
263 1 9.89126170 1.45071838 2.39784847 0 0 0
264 1 10.15502868 1.45071838 2.40781048 0 0 0
265 1 10.41879566 1.45071838 2.41777504 0 0 0
266 1 10.68256264 1.45071838 2.42774213 0 0 0
267 1 10.94632962 1.45071838 2.43771172 0 0 0
268 1 11.21009660 1.45071838 2.44768379 0 0 0
269 1 11.47386358 1.45071838 2.45765832 0 0 0
270 1 11.73763056 1.45071838 2.46763529 0 0 0
271 1 0.13188349 1.71448536 2.47761468 0 0 0
272 1 0.39565047 1.71448536 2.48759647 0 0 0
273 1 0.65941745 1.71448536 2.49758065 0 0 0
274 1 0.92318443 1.71448536 2.50756719 0 0 0
275 1 1.18695140 1.71448536 2.51755608 0 0 0
276 1 1.45071838 1.71448536 2.52754731 0 0 0
277 1 1.71448536 1.71448536 2.53754086 0 0 0
278 1 1.97825234 1.71448536 2.54753671 0 0 0
279 1 2.24201932 1.71448536 2.55753485 0 0 0
280 1 2.50578630 1.71448536 2.56753527 0 0 0
281 1 2.76955328 1.71448536 2.57753796 0 0 0
282 1 3.03332026 1.71448536 2.58754291 0 0 0
283 1 3.29708723 1.71448536 2.59755010 0 0 0
284 1 3.56085421 1.71448536 2.60755952 0 0 0
285 1 3.82462119 1.71448536 2.61757117 0 0 0
286 1 4.08838817 1.71448536 2.62758505 0 0 0
287 1 4.35215515 1.71448536 2.63760113 0 0 0
288 1 4.61592213 1.71448536 2.64761941 0 0 0
289 1 4.87968911 1.71448536 2.65763990 0 0 0
290 1 5.14345609 1.71448536 2.66766258 0 0 0
291 1 5.40722306 1.71448536 2.67768745 0 0 0
292 1 5.67099004 1.71448536 2.68771450 0 0 0
293 1 5.93475702 1.71448536 2.69774374 0 0 0
294 1 6.19852400 1.71448536 2.70777516 0 0 0
295 1 6.46229098 1.71448536 2.71780877 0 0 0
296 1 6.72605796 1.71448536 2.72784455 0 0 0
297 1 6.98982494 1.71448536 2.73788251 0 0 0
298 1 7.25359192 1.71448536 2.74792265 0 0 0
299 1 7.51735890 1.71448536 2.75796498 0 0 0
300 1 7.78112587 1.71448536 2.76800950 0 0 0
301 1 8.04489285 1.71448536 2.77805620 0 0 0
302 1 8.30865983 1.71448536 2.78810510 0 0 0
303 1 8.57242681 1.71448536 2.79815620 0 0 0
304 1 8.83619379 1.71448536 2.80820950 0 0 0
305 1 9.09996077 1.71448536 2.81826502 0 0 0
306 1 9.36372775 1.71448536 2.82832276 0 0 0
307 1 9.62749473 1.71448536 2.83838272 0 0 0
308 1 9.89126170 1.71448536 2.84844493 0 0 0
309 1 10.15502868 1.71448536 2.85850937 0 0 0
310 1 10.41879566 1.71448536 2.86857608 0 0 0
311 1 10.68256264 1.71448536 2.87864506 0 0 0
312 1 10.94632962 1.71448536 2.88871631 0 0 0
313 1 11.21009660 1.71448536 2.89878986 0 0 0
314 1 11.47386358 1.71448536 2.90886572 0 0 0
315 1 11.73763056 1.71448536 2.91894390 0 0 0
316 1 0.13188349 1.97825234 2.92902441 0 0 0
317 1 0.39565047 1.97825234 2.93910728 0 0 0
318 1 0.65941745 1.97825234 2.94919252 0 0 0
319 1 0.92318443 1.97825234 2.95928015 0 0 0
320 1 1.18695140 1.97825234 2.96937018 0 0 0
321 1 1.45071838 1.97825234 2.97946263 0 0 0
322 1 1.71448536 1.97825234 2.98955753 0 0 0
323 1 1.97825234 1.97825234 2.99965490 0 0 0
324 1 2.24201932 1.97825234 3.00975475 0 0 0
325 1 2.50578630 1.97825234 3.01985711 0 0 0
326 1 2.76955328 1.97825234 3.02996199 0 0 0
327 1 3.03332026 1.97825234 3.04006944 0 0 0
328 1 3.29708723 1.97825234 3.05017946 0 0 0
329 1 3.56085421 1.97825234 3.06029209 0 0 0
330 1 3.82462119 1.97825234 3.07040734 0 0 0
331 1 4.08838817 1.97825234 3.08052525 0 0 0
332 1 4.35215515 1.97825234 3.09064585 0 0 0
333 1 4.61592213 1.97825234 3.10076916 0 0 0
334 1 4.87968911 1.97825234 3.11089520 0 0 0
335 1 5.14345609 1.97825234 3.12102402 0 0 0
336 1 5.40722306 1.97825234 3.13115563 0 0 0
337 1 5.67099004 1.97825234 3.14129008 0 0 0
338 1 5.93475702 1.97825234 3.15142739 0 0 0
339 1 6.19852400 1.97825234 3.16156759 0 0 0
340 1 6.46229098 1.97825234 3.17171072 0 0 0
341 1 6.72605796 1.97825234 3.18185681 0 0 0
342 1 6.98982494 1.97825234 3.19200590 0 0 0
343 1 7.25359192 1.97825234 3.20215802 0 0 0
344 1 7.51735890 1.97825234 3.21231321 0 0 0
345 1 7.78112587 1.97825234 3.22247150 0 0 0
346 1 8.04489285 1.97825234 3.23263293 0 0 0
347 1 8.30865983 1.97825234 3.24279754 0 0 0
348 1 8.57242681 1.97825234 3.25296537 0 0 0
349 1 8.83619379 1.97825234 3.26313646 0 0 0
350 1 9.09996077 1.97825234 3.27331085 0 0 0
351 1 9.36372775 1.97825234 3.28348857 0 0 0
352 1 9.62749473 1.97825234 3.29366968 0 0 0
353 1 9.89126170 1.97825234 3.30385421 0 0 0
354 1 10.15502868 1.97825234 3.31404220 0 0 0
355 1 10.41879566 1.97825234 3.32423370 0 0 0
356 1 10.68256264 1.97825234 3.33442876 0 0 0
357 1 10.94632962 1.97825234 3.34462742 0 0 0
358 1 11.21009660 1.97825234 3.35482972 0 0 0
359 1 11.47386358 1.97825234 3.36503571 0 0 0
360 1 11.73763056 1.97825234 3.37524544 0 0 0
361 1 0.13188349 2.24201932 3.38545896 0 0 0
362 1 0.39565047 2.24201932 3.39567631 0 0 0
363 1 0.65941745 2.24201932 3.40589755 0 0 0
364 1 0.92318443 2.24201932 3.41612271 0 0 0
365 1 1.18695140 2.24201932 3.42635187 0 0 0
366 1 1.45071838 2.24201932 3.43658505 0 0 0
367 1 1.71448536 2.24201932 3.44682233 0 0 0
368 1 1.97825234 2.24201932 3.45706374 0 0 0
369 1 2.24201932 2.24201932 3.46730934 0 0 0
370 1 2.50578630 2.24201932 3.47755919 0 0 0
371 1 2.76955328 2.24201932 3.48781334 0 0 0
372 1 3.03332026 2.24201932 3.49807185 0 0 0
373 1 3.29708723 2.24201932 3.50833477 0 0 0
374 1 3.56085421 2.24201932 3.51860215 0 0 0
375 1 3.82462119 2.24201932 3.52887406 0 0 0
376 1 4.08838817 2.24201932 3.53915055 0 0 0
377 1 4.35215515 2.24201932 3.54943168 0 0 0
378 1 4.61592213 2.24201932 3.55971751 0 0 0
379 1 4.87968911 2.24201932 3.57000810 0 0 0
380 1 5.14345609 2.24201932 3.58030350 0 0 0
381 1 5.40722306 2.24201932 3.59060379 0 0 0
382 1 5.67099004 2.24201932 3.60090901 0 0 0
383 1 5.93475702 2.24201932 3.61121924 0 0 0
384 1 6.19852400 2.24201932 3.62153454 0 0 0
385 1 6.46229098 2.24201932 3.63185496 0 0 0
386 1 6.72605796 2.24201932 3.64218058 0 0 0
387 1 6.98982494 2.24201932 3.65251145 0 0 0
388 1 7.25359192 2.24201932 3.66284765 0 0 0
389 1 7.51735890 2.24201932 3.67318923 0 0 0
390 1 7.78112587 2.24201932 3.68353627 0 0 0
391 1 8.04489285 2.24201932 3.69388883 0 0 0
392 1 8.30865983 2.24201932 3.70424698 0 0 0
393 1 8.57242681 2.24201932 3.71461078 0 0 0
394 1 8.83619379 2.24201932 3.72498031 0 0 0
395 1 9.09996077 2.24201932 3.73535564 0 0 0
396 1 9.36372775 2.24201932 3.74573683 0 0 0
397 1 9.62749473 2.24201932 3.75612396 0 0 0
398 1 9.89126170 2.24201932 3.76651709 0 0 0
399 1 10.15502868 2.24201932 3.77691630 0 0 0
400 1 10.41879566 2.24201932 3.78732167 0 0 0
401 1 10.68256264 2.24201932 3.79773325 0 0 0
402 1 10.94632962 2.24201932 3.80815114 0 0 0
403 1 11.21009660 2.24201932 3.81857539 0 0 0
404 1 11.47386358 2.24201932 3.82900610 0 0 0
405 1 11.73763056 2.24201932 3.83944332 0 0 0
406 1 0.13188349 2.50578630 3.84988714 0 0 0
407 1 0.39565047 2.50578630 3.86033763 0 0 0
408 1 0.65941745 2.50578630 3.87079488 0 0 0
409 1 0.92318443 2.50578630 3.88125895 0 0 0
410 1 1.18695140 2.50578630 3.89172993 0 0 0
411 1 1.45071838 2.50578630 3.90220790 0 0 0
412 1 1.71448536 2.50578630 3.91269293 0 0 0
413 1 1.97825234 2.50578630 3.92318510 0 0 0
414 1 2.24201932 2.50578630 3.93368450 0 0 0
415 1 2.50578630 2.50578630 3.94419120 0 0 0
416 1 2.76955328 2.50578630 3.95470529 0 0 0
417 1 3.03332026 2.50578630 3.96522685 0 0 0
418 1 3.29708723 2.50578630 3.97575596 0 0 0
419 1 3.56085421 2.50578630 3.98629270 0 0 0
420 1 3.82462119 2.50578630 3.99683717 0 0 0
421 1 4.08838817 2.50578630 4.00738943 0 0 0
422 1 4.35215515 2.50578630 4.01794959 0 0 0
423 1 4.61592213 2.50578630 4.02851771 0 0 0
424 1 4.87968911 2.50578630 4.03909390 0 0 0
425 1 5.14345609 2.50578630 4.04967823 0 0 0
426 1 5.40722306 2.50578630 4.06027079 0 0 0
427 1 5.67099004 2.50578630 4.07087167 0 0 0
428 1 5.93475702 2.50578630 4.08148096 0 0 0
429 1 6.19852400 2.50578630 4.09209875 0 0 0
430 1 6.46229098 2.50578630 4.10272512 0 0 0
431 1 6.72605796 2.50578630 4.11336017 0 0 0
432 1 6.98982494 2.50578630 4.12400398 0 0 0
433 1 7.25359192 2.50578630 4.13465665 0 0 0
434 1 7.51735890 2.50578630 4.14531826 0 0 0
435 1 7.78112587 2.50578630 4.15598891 0 0 0
436 1 8.04489285 2.50578630 4.16666869 0 0 0
437 1 8.30865983 2.50578630 4.17735770 0 0 0
438 1 8.57242681 2.50578630 4.18805602 0 0 0
439 1 8.83619379 2.50578630 4.19876376 0 0 0
440 1 9.09996077 2.50578630 4.20948100 0 0 0
441 1 9.36372775 2.50578630 4.22020783 0 0 0
442 1 9.62749473 2.50578630 4.23094437 0 0 0
443 1 9.89126170 2.50578630 4.24169069 0 0 0
444 1 10.15502868 2.50578630 4.25244690 0 0 0
445 1 10.41879566 2.50578630 4.26321309 0 0 0
446 1 10.68256264 2.50578630 4.27398936 0 0 0
447 1 10.94632962 2.50578630 4.28477581 0 0 0
448 1 11.21009660 2.50578630 4.29557254 0 0 0
449 1 11.47386358 2.50578630 4.30637964 0 0 0
450 1 11.73763056 2.50578630 4.31719721 0 0 0
451 1 0.13188349 2.76955328 4.32802536 0 0 0
452 1 0.39565047 2.76955328 4.33886418 0 0 0
453 1 0.65941745 2.76955328 4.34971377 0 0 0
454 1 0.92318443 2.76955328 4.36057424 0 0 0
455 1 1.18695140 2.76955328 4.37144568 0 0 0
456 1 1.45071838 2.76955328 4.38232820 0 0 0
457 1 1.71448536 2.76955328 4.39322191 0 0 0
458 1 1.97825234 2.76955328 4.40412689 0 0 0
459 1 2.24201932 2.76955328 4.41504326 0 0 0
460 1 2.50578630 2.76955328 4.42597112 0 0 0
461 1 2.76955328 2.76955328 4.43691057 0 0 0
462 1 3.03332026 2.76955328 4.44786172 0 0 0
463 1 3.29708723 2.76955328 4.45882467 0 0 0
464 1 3.56085421 2.76955328 4.46979953 0 0 0
465 1 3.82462119 2.76955328 4.48078640 0 0 0
466 1 4.08838817 2.76955328 4.49178539 0 0 0
467 1 4.35215515 2.76955328 4.50279660 0 0 0
468 1 4.61592213 2.76955328 4.51382015 0 0 0
469 1 4.87968911 2.76955328 4.52485614 0 0 0
470 1 5.14345609 2.76955328 4.53590467 0 0 0
471 1 5.40722306 2.76955328 4.54696586 0 0 0
472 1 5.67099004 2.76955328 4.55803981 0 0 0
473 1 5.93475702 2.76955328 4.56912663 0 0 0
474 1 6.19852400 2.76955328 4.58022643 0 0 0
475 1 6.46229098 2.76955328 4.59133933 0 0 0
476 1 6.72605796 2.76955328 4.60246542 0 0 0
477 1 6.98982494 2.76955328 4.61360482 0 0 0
478 1 7.25359192 2.76955328 4.62475764 0 0 0
479 1 7.51735890 2.76955328 4.63592399 0 0 0
480 1 7.78112587 2.76955328 4.64710399 0 0 0
481 1 8.04489285 2.76955328 4.65829773 0 0 0
482 1 8.30865983 2.76955328 4.66950534 0 0 0
483 1 8.57242681 2.76955328 4.68072693 0 0 0
484 1 8.83619379 2.76955328 4.69196260 0 0 0
485 1 9.09996077 2.76955328 4.70321248 0 0 0
486 1 9.36372775 2.76955328 4.71447666 0 0 0
487 1 9.62749473 2.76955328 4.72575527 0 0 0
488 1 9.89126170 2.76955328 4.73704842 0 0 0
489 1 10.15502868 2.76955328 4.74835623 0 0 0
490 1 10.41879566 2.76955328 4.75967879 0 0 0
491 1 10.68256264 2.76955328 4.77101624 0 0 0
492 1 10.94632962 2.76955328 4.78236868 0 0 0
493 1 11.21009660 2.76955328 4.79373623 0 0 0
494 1 11.47386358 2.76955328 4.80511900 0 0 0
495 1 11.73763056 2.76955328 4.81651710 0 0 0
496 1 0.13188349 3.03332026 4.82793066 0 0 0
497 1 0.39565047 3.03332026 4.83935978 0 0 0
498 1 0.65941745 3.03332026 4.85080458 0 0 0
499 1 0.92318443 3.03332026 4.86226517 0 0 0
500 1 1.18695140 3.03332026 4.87374167 0 0 0
501 1 1.45071838 3.03332026 4.88523420 0 0 0
502 1 1.71448536 3.03332026 4.89674287 0 0 0
503 1 1.97825234 3.03332026 4.90826780 0 0 0
504 1 2.24201932 3.03332026 4.91980909 0 0 0
505 1 2.50578630 3.03332026 4.93136687 0 0 0
506 1 2.76955328 3.03332026 4.94294126 0 0 0
507 1 3.03332026 3.03332026 4.95453235 0 0 0
508 1 3.29708723 3.03332026 4.96614029 0 0 0
509 1 3.56085421 3.03332026 4.97776516 0 0 0
510 1 3.82462119 3.03332026 4.98940711 0 0 0
511 1 4.08838817 3.03332026 5.00106622 0 0 0
512 1 4.35215515 3.03332026 5.01274264 0 0 0
513 1 4.61592213 3.03332026 5.02443645 0 0 0
514 1 4.87968911 3.03332026 5.03614780 0 0 0
515 1 5.14345609 3.03332026 5.04787677 0 0 0
516 1 5.40722306 3.03332026 5.05962350 0 0 0
517 1 5.67099004 3.03332026 5.07138810 0 0 0
518 1 5.93475702 3.03332026 5.08317068 0 0 0
519 1 6.19852400 3.03332026 5.09497135 0 0 0
520 1 6.46229098 3.03332026 5.10679023 0 0 0
521 1 6.72605796 3.03332026 5.11862743 0 0 0
522 1 6.98982494 3.03332026 5.13048306 0 0 0
523 1 7.25359192 3.03332026 5.14235724 0 0 0
524 1 7.51735890 3.03332026 5.15425008 0 0 0
525 1 7.78112587 3.03332026 5.16616170 0 0 0
526 1 8.04489285 3.03332026 5.17809220 0 0 0
527 1 8.30865983 3.03332026 5.19004169 0 0 0
528 1 8.57242681 3.03332026 5.20201029 0 0 0
529 1 8.83619379 3.03332026 5.21399810 0 0 0
530 1 9.09996077 3.03332026 5.22600524 0 0 0
531 1 9.36372775 3.03332026 5.23803182 0 0 0
532 1 9.62749473 3.03332026 5.25007794 0 0 0
533 1 9.89126170 3.03332026 5.26214372 0 0 0
534 1 10.15502868 3.03332026 5.27422926 0 0 0
535 1 10.41879566 3.03332026 5.28633466 0 0 0
536 1 10.68256264 3.03332026 5.29846004 0 0 0
537 1 10.94632962 3.03332026 5.31060551 0 0 0
538 1 11.21009660 3.03332026 5.32277116 0 0 0
539 1 11.47386358 3.03332026 5.33495710 0 0 0
540 1 11.73763056 3.03332026 5.34716343 0 0 0
541 1 0.13188349 3.29708723 5.35939026 0 0 0
542 1 0.39565047 3.29708723 5.37163770 0 0 0
543 1 0.65941745 3.29708723 5.38390583 0 0 0
544 1 0.92318443 3.29708723 5.39619477 0 0 0
545 1 1.18695140 3.29708723 5.40850460 0 0 0
546 1 1.45071838 3.29708723 5.42083544 0 0 0
547 1 1.71448536 3.29708723 5.43318737 0 0 0
548 1 1.97825234 3.29708723 5.44556049 0 0 0
549 1 2.24201932 3.29708723 5.45795491 0 0 0
550 1 2.50578630 3.29708723 5.47037070 0 0 0
551 1 2.76955328 3.29708723 5.48280798 0 0 0
552 1 3.03332026 3.29708723 5.49526682 0 0 0
553 1 3.29708723 3.29708723 5.50774732 0 0 0
554 1 3.56085421 3.29708723 5.52024957 0 0 0
555 1 3.82462119 3.29708723 5.53277365 0 0 0
556 1 4.08838817 3.29708723 5.54531966 0 0 0
557 1 4.35215515 3.29708723 5.55788768 0 0 0
558 1 4.61592213 3.29708723 5.57047779 0 0 0
559 1 4.87968911 3.29708723 5.58309008 0 0 0
560 1 5.14345609 3.29708723 5.59572463 0 0 0
561 1 5.40722306 3.29708723 5.60838151 0 0 0
562 1 5.67099004 3.29708723 5.62106081 0 0 0
563 1 5.93475702 3.29708723 5.63376260 0 0 0
564 1 6.19852400 3.29708723 5.64648696 0 0 0
565 1 6.46229098 3.29708723 5.65923395 0 0 0
566 1 6.72605796 3.29708723 5.67200366 0 0 0
567 1 6.98982494 3.29708723 5.68479615 0 0 0
568 1 7.25359192 3.29708723 5.69761148 0 0 0
569 1 7.51735890 3.29708723 5.71044973 0 0 0
570 1 7.78112587 3.29708723 5.72331096 0 0 0
571 1 8.04489285 3.29708723 5.73619523 0 0 0
572 1 8.30865983 3.29708723 5.74910260 0 0 0
573 1 8.57242681 3.29708723 5.76203313 0 0 0
574 1 8.83619379 3.29708723 5.77498687 0 0 0
575 1 9.09996077 3.29708723 5.78796388 0 0 0
576 1 9.36372775 3.29708723 5.80096421 0 0 0
577 1 9.62749473 3.29708723 5.81398791 0 0 0
578 1 9.89126170 3.29708723 5.82703502 0 0 0
579 1 10.15502868 3.29708723 5.84010560 0 0 0
580 1 10.41879566 3.29708723 5.85319967 0 0 0
581 1 10.68256264 3.29708723 5.86631729 0 0 0
582 1 10.94632962 3.29708723 5.87945849 0 0 0
583 1 11.21009660 3.29708723 5.89262330 0 0 0
584 1 11.47386358 3.29708723 5.90581176 0 0 0
585 1 11.73763056 3.29708723 5.91902390 0 0 0
586 1 0.13188349 3.56085421 5.93225974 0 0 0
587 1 0.39565047 3.56085421 5.94551930 0 0 0
588 1 0.65941745 3.56085421 5.95880262 0 0 0
589 1 0.92318443 3.56085421 5.97210970 0 0 0
590 1 1.18695140 3.56085421 5.98544057 0 0 0
591 1 1.45071838 3.56085421 5.99879523 0 0 0
592 1 1.71448536 3.56085421 6.01217370 0 0 0
593 1 1.97825234 3.56085421 6.02557598 0 0 0
594 1 2.24201932 3.56085421 6.03900208 0 0 0
595 1 2.50578630 3.56085421 6.05245200 0 0 0
596 1 2.76955328 3.56085421 6.06592573 0 0 0
597 1 3.03332026 3.56085421 6.07942328 0 0 0
598 1 3.29708723 3.56085421 6.09294463 0 0 0
599 1 3.56085421 3.56085421 6.10648977 0 0 0
600 1 3.82462119 3.56085421 6.12005868 0 0 0
601 1 4.08838817 3.56085421 6.13365136 0 0 0
602 1 4.35215515 3.56085421 6.14726776 0 0 0
603 1 4.61592213 3.56085421 6.16090788 0 0 0
604 1 4.87968911 3.56085421 6.17457168 0 0 0
605 1 5.14345609 3.56085421 6.18825914 0 0 0
606 1 5.40722306 3.56085421 6.20197020 0 0 0
607 1 5.67099004 3.56085421 6.21570485 0 0 0
608 1 5.93475702 3.56085421 6.22946302 0 0 0
609 1 6.19852400 3.56085421 6.24324469 0 0 0
610 1 6.46229098 3.56085421 6.25704979 0 0 0
611 1 6.72605796 3.56085421 6.27087827 0 0 0
612 1 6.98982494 3.56085421 6.28473009 0 0 0
613 1 7.25359192 3.56085421 6.29860516 0 0 0
614 1 7.51735890 3.56085421 6.31250345 0 0 0
615 1 7.78112587 3.56085421 6.32642486 0 0 0
616 1 8.04489285 3.56085421 6.34036934 0 0 0
617 1 8.30865983 3.56085421 6.35433680 0 0 0
618 1 8.57242681 3.56085421 6.36832718 0 0 0
619 1 8.83619379 3.56085421 6.38234037 0 0 0
620 1 9.09996077 3.56085421 6.39637630 0 0 0
621 1 9.36372775 3.56085421 6.41043488 0 0 0
622 1 9.62749473 3.56085421 6.42451601 0 0 0
623 1 9.89126170 3.56085421 6.43861959 0 0 0
624 1 10.15502868 3.56085421 6.45274552 0 0 0
625 1 10.41879566 3.56085421 6.46689369 0 0 0
626 1 10.68256264 3.56085421 6.48106400 0 0 0
627 1 10.94632962 3.56085421 6.49525633 0 0 0
628 1 11.21009660 3.56085421 6.50947055 0 0 0
629 1 11.47386358 3.56085421 6.52370656 0 0 0
630 1 11.73763056 3.56085421 6.53796422 0 0 0
631 1 0.13188349 3.82462119 6.55224341 0 0 0
632 1 0.39565047 3.82462119 6.56654399 0 0 0
633 1 0.65941745 3.82462119 6.58086582 0 0 0
634 1 0.92318443 3.82462119 6.59520877 0 0 0
635 1 1.18695140 3.82462119 6.60957269 0 0 0
636 1 1.45071838 3.82462119 6.62395743 0 0 0
637 1 1.71448536 3.82462119 6.63836284 0 0 0
638 1 1.97825234 3.82462119 6.65278877 0 0 0
639 1 2.24201932 3.82462119 6.66723505 0 0 0
640 1 2.50578630 3.82462119 6.68170153 0 0 0
641 1 2.76955328 3.82462119 6.69618803 0 0 0
642 1 3.03332026 3.82462119 6.71069439 0 0 0
643 1 3.29708723 3.82462119 6.72522043 0 0 0
644 1 3.56085421 3.82462119 6.73976598 0 0 0
645 1 3.82462119 3.82462119 6.75433086 0 0 0
646 1 4.08838817 3.82462119 6.76891488 0 0 0
647 1 4.35215515 3.82462119 6.78351786 0 0 0
648 1 4.61592213 3.82462119 6.79813960 0 0 0
649 1 4.87968911 3.82462119 6.81277993 0 0 0
650 1 5.14345609 3.82462119 6.82743863 0 0 0
651 1 5.40722306 3.82462119 6.84211551 0 0 0
652 1 5.67099004 3.82462119 6.85681037 0 0 0
653 1 5.93475702 3.82462119 6.87152300 0 0 0
654 1 6.19852400 3.82462119 6.88625319 0 0 0
655 1 6.46229098 3.82462119 6.90100075 0 0 0
656 1 6.72605796 3.82462119 6.91576544 0 0 0
657 1 6.98982494 3.82462119 6.93054706 0 0 0
658 1 7.25359192 3.82462119 6.94534539 0 0 0
659 1 7.51735890 3.82462119 6.96016020 0 0 0
660 1 7.78112587 3.82462119 6.97499128 0 0 0
661 1 8.04489285 3.82462119 6.98983840 0 0 0
662 1 8.30865983 3.82462119 7.00470133 0 0 0
663 1 8.57242681 3.82462119 7.01957984 0 0 0
664 1 8.83619379 3.82462119 7.03447370 0 0 0
665 1 9.09996077 3.82462119 7.04938268 0 0 0
666 1 9.36372775 3.82462119 7.06430654 0 0 0
667 1 9.62749473 3.82462119 7.07924505 0 0 0
668 1 9.89126170 3.82462119 7.09419797 0 0 0
669 1 10.15502868 3.82462119 7.10916505 0 0 0
670 1 10.41879566 3.82462119 7.12414606 0 0 0
671 1 10.68256264 3.82462119 7.13914076 0 0 0
672 1 10.94632962 3.82462119 7.15414889 0 0 0
673 1 11.21009660 3.82462119 7.16917023 0 0 0
674 1 11.47386358 3.82462119 7.18420451 0 0 0
675 1 11.73763056 3.82462119 7.19925149 0 0 0
676 1 0.13188349 4.08838817 7.21431094 0 0 0
677 1 0.39565047 4.08838817 7.22938259 0 0 0
678 1 0.65941745 4.08838817 7.24446621 0 0 0
679 1 0.92318443 4.08838817 7.25956153 0 0 0
680 1 1.18695140 4.08838817 7.27466832 0 0 0
681 1 1.45071838 4.08838817 7.28978633 0 0 0
682 1 1.71448536 4.08838817 7.30491530 0 0 0
683 1 1.97825234 4.08838817 7.32005499 0 0 0
684 1 2.24201932 4.08838817 7.33520514 0 0 0
685 1 2.50578630 4.08838817 7.35036552 0 0 0
686 1 2.76955328 4.08838817 7.36553586 0 0 0
687 1 3.03332026 4.08838817 7.38071593 0 0 0
688 1 3.29708723 4.08838817 7.39590548 0 0 0
689 1 3.56085421 4.08838817 7.41110425 0 0 0
690 1 3.82462119 4.08838817 7.42631202 0 0 0
691 1 4.08838817 4.08838817 7.44152852 0 0 0
692 1 4.35215515 4.08838817 7.45675352 0 0 0
693 1 4.61592213 4.08838817 7.47198678 0 0 0
694 1 4.87968911 4.08838817 7.48722805 0 0 0
695 1 5.14345609 4.08838817 7.50247709 0 0 0
696 1 5.40722306 4.08838817 7.51773367 0 0 0
697 1 5.67099004 4.08838817 7.53299756 0 0 0
698 1 5.93475702 4.08838817 7.54826851 0 0 0
699 1 6.19852400 4.08838817 7.56354629 0 0 0
700 1 6.46229098 4.08838817 7.57883068 0 0 0
701 1 6.72605796 4.08838817 7.59412144 0 0 0
702 1 6.98982494 4.08838817 7.60941835 0 0 0
703 1 7.25359192 4.08838817 7.62472118 0 0 0
704 1 7.51735890 4.08838817 7.64002971 0 0 0
705 1 7.78112587 4.08838817 7.65534373 0 0 0
706 1 8.04489285 4.08838817 7.67066300 0 0 0
707 1 8.30865983 4.08838817 7.68598733 0 0 0
708 1 8.57242681 4.08838817 7.70131649 0 0 0
709 1 8.83619379 4.08838817 7.71665028 0 0 0
710 1 9.09996077 4.08838817 7.73198849 0 0 0
711 1 9.36372775 4.08838817 7.74733091 0 0 0
712 1 9.62749473 4.08838817 7.76267736 0 0 0
713 1 9.89126170 4.08838817 7.77802762 0 0 0
714 1 10.15502868 4.08838817 7.79338150 0 0 0
715 1 10.41879566 4.08838817 7.80873882 0 0 0
716 1 10.68256264 4.08838817 7.82409938 0 0 0
717 1 10.94632962 4.08838817 7.83946300 0 0 0
718 1 11.21009660 4.08838817 7.85482950 0 0 0
719 1 11.47386358 4.08838817 7.87019870 0 0 0
720 1 11.73763056 4.08838817 7.88557042 0 0 0
721 1 0.13188349 4.35215515 7.90094450 0 0 0
722 1 0.39565047 4.35215515 7.91632077 0 0 0
723 1 0.65941745 4.35215515 7.93169905 0 0 0
724 1 0.92318443 4.35215515 7.94707921 0 0 0
725 1 1.18695140 4.35215515 7.96246106 0 0 0
726 1 1.45071838 4.35215515 7.97784447 0 0 0
727 1 1.71448536 4.35215515 7.99322929 0 0 0
728 1 1.97825234 4.35215515 8.00861536 0 0 0
729 1 2.24201932 4.35215515 8.02400255 0 0 0
730 1 2.50578630 4.35215515 8.03939072 0 0 0
731 1 2.76955328 4.35215515 8.05477974 0 0 0
732 1 3.03332026 4.35215515 8.07016948 0 0 0
733 1 3.29708723 4.35215515 8.08555981 0 0 0
734 1 3.56085421 4.35215515 8.10095062 0 0 0
735 1 3.82462119 4.35215515 8.11634177 0 0 0
736 1 4.08838817 4.35215515 8.13173317 0 0 0
737 1 4.35215515 4.35215515 8.14712470 0 0 0
738 1 4.61592213 4.35215515 8.16251625 0 0 0
739 1 4.87968911 4.35215515 8.17790773 0 0 0
740 1 5.14345609 4.35215515 8.19329903 0 0 0
741 1 5.40722306 4.35215515 8.20869007 0 0 0
742 1 5.67099004 4.35215515 8.22408075 0 0 0
743 1 5.93475702 4.35215515 8.23947100 0 0 0
744 1 6.19852400 4.35215515 8.25486072 0 0 0
745 1 6.46229098 4.35215515 8.27024984 0 0 0
746 1 6.72605796 4.35215515 8.28563830 0 0 0
747 1 6.98982494 4.35215515 8.30102601 0 0 0
748 1 7.25359192 4.35215515 8.31641292 0 0 0
749 1 7.51735890 4.35215515 8.33179897 0 0 0
750 1 7.78112587 4.35215515 8.34718409 0 0 0
751 1 8.04489285 4.35215515 8.36256824 0 0 0
752 1 8.30865983 4.35215515 8.37795137 0 0 0
753 1 8.57242681 4.35215515 8.39333343 0 0 0
754 1 8.83619379 4.35215515 8.40871438 0 0 0
755 1 9.09996077 4.35215515 8.42409419 0 0 0
756 1 9.36372775 4.35215515 8.43947282 0 0 0
757 1 9.62749473 4.35215515 8.45485024 0 0 0
758 1 9.89126170 4.35215515 8.47022644 0 0 0
759 1 10.15502868 4.35215515 8.48560137 0 0 0
760 1 10.41879566 4.35215515 8.50097504 0 0 0
761 1 10.68256264 4.35215515 8.51634742 0 0 0
762 1 10.94632962 4.35215515 8.53171851 0 0 0
763 1 11.21009660 4.35215515 8.54708830 0 0 0
764 1 11.47386358 4.35215515 8.56245678 0 0 0
765 1 11.73763056 4.35215515 8.57782396 0 0 0
766 1 0.13188349 4.61592213 8.59318985 0 0 0
767 1 0.39565047 4.61592213 8.60855444 0 0 0
768 1 0.65941745 4.61592213 8.62391775 0 0 0
769 1 0.92318443 4.61592213 8.63927981 0 0 0
770 1 1.18695140 4.61592213 8.65464062 0 0 0
771 1 1.45071838 4.61592213 8.67000020 0 0 0
772 1 1.71448536 4.61592213 8.68535859 0 0 0
773 1 1.97825234 4.61592213 8.70071581 0 0 0
774 1 2.24201932 4.61592213 8.71607190 0 0 0
775 1 2.50578630 4.61592213 8.73142689 0 0 0
776 1 2.76955328 4.61592213 8.74678081 0 0 0
777 1 3.03332026 4.61592213 8.76213372 0 0 0
778 1 3.29708723 4.61592213 8.77748565 0 0 0
779 1 3.56085421 4.61592213 8.79283665 0 0 0
780 1 3.82462119 4.61592213 8.80818677 0 0 0
781 1 4.08838817 4.61592213 8.82353608 0 0 0
782 1 4.35215515 4.61592213 8.83888461 0 0 0
783 1 4.61592213 4.61592213 8.85423244 0 0 0
784 1 4.87968911 4.61592213 8.86957963 0 0 0
785 1 5.14345609 4.61592213 8.88492624 0 0 0
786 1 5.40722306 4.61592213 8.90027234 0 0 0
787 1 5.67099004 4.61592213 8.91561801 0 0 0
788 1 5.93475702 4.61592213 8.93096330 0 0 0
789 1 6.19852400 4.61592213 8.94630831 0 0 0
790 1 6.46229098 4.61592213 8.96165311 0 0 0
791 1 6.72605796 4.61592213 8.97699777 0 0 0
792 1 6.98982494 4.61592213 8.99234240 0 0 0
793 1 7.25359192 4.61592213 9.00768706 0 0 0
794 1 7.51735890 4.61592213 9.02303185 0 0 0
795 1 7.78112587 4.61592213 9.03837686 0 0 0
796 1 8.04489285 4.61592213 9.05372218 0 0 0
797 1 8.30865983 4.61592213 9.06906792 0 0 0
798 1 8.57242681 4.61592213 9.08441415 0 0 0
799 1 8.83619379 4.61592213 9.09976099 0 0 0
800 1 9.09996077 4.61592213 9.11510854 0 0 0
801 1 9.36372775 4.61592213 9.13045690 0 0 0
802 1 9.62749473 4.61592213 9.14580617 0 0 0
803 1 9.89126170 4.61592213 9.16115647 0 0 0
804 1 10.15502868 4.61592213 9.17650790 0 0 0
805 1 10.41879566 4.61592213 9.19186057 0 0 0
806 1 10.68256264 4.61592213 9.20721460 0 0 0
807 1 10.94632962 4.61592213 9.22257010 0 0 0
808 1 11.21009660 4.61592213 9.23792718 0 0 0
809 1 11.47386358 4.61592213 9.25328598 0 0 0
810 1 11.73763056 4.61592213 9.26864660 0 0 0
811 1 0.13188349 4.87968911 9.28400916 0 0 0
812 1 0.39565047 4.87968911 9.29937379 0 0 0
813 1 0.65941745 4.87968911 9.31474062 0 0 0
814 1 0.92318443 4.87968911 9.33010976 0 0 0
815 1 1.18695140 4.87968911 9.34548135 0 0 0
816 1 1.45071838 4.87968911 9.36085551 0 0 0
817 1 1.71448536 4.87968911 9.37623237 0 0 0
818 1 1.97825234 4.87968911 9.39161206 0 0 0
819 1 2.24201932 4.87968911 9.40699472 0 0 0
820 1 2.50578630 4.87968911 9.42238047 0 0 0
821 1 2.76955328 4.87968911 9.43776945 0 0 0
822 1 3.03332026 4.87968911 9.45316179 0 0 0
823 1 3.29708723 4.87968911 9.46855764 0 0 0
824 1 3.56085421 4.87968911 9.48395712 0 0 0
825 1 3.82462119 4.87968911 9.49936037 0 0 0
826 1 4.08838817 4.87968911 9.51476753 0 0 0
827 1 4.35215515 4.87968911 9.53017874 0 0 0
828 1 4.61592213 4.87968911 9.54559413 0 0 0
829 1 4.87968911 4.87968911 9.56101386 0 0 0
830 1 5.14345609 4.87968911 9.57643805 0 0 0
831 1 5.40722306 4.87968911 9.59186685 0 0 0
832 1 5.67099004 4.87968911 9.60730040 0 0 0
833 1 5.93475702 4.87968911 9.62273885 0 0 0
834 1 6.19852400 4.87968911 9.63818233 0 0 0
835 1 6.46229098 4.87968911 9.65363098 0 0 0
836 1 6.72605796 4.87968911 9.66908496 0 0 0
837 1 6.98982494 4.87968911 9.68454439 0 0 0
838 1 7.25359192 4.87968911 9.70000943 0 0 0
839 1 7.51735890 4.87968911 9.71548022 0 0 0
840 1 7.78112587 4.87968911 9.73095691 0 0 0
841 1 8.04489285 4.87968911 9.74643962 0 0 0
842 1 8.30865983 4.87968911 9.76192852 0 0 0
843 1 8.57242681 4.87968911 9.77742374 0 0 0
844 1 8.83619379 4.87968911 9.79292542 0 0 0
845 1 9.09996077 4.87968911 9.80843371 0 0 0
846 1 9.36372775 4.87968911 9.82394874 0 0 0
847 1 9.62749473 4.87968911 9.83947067 0 0 0
848 1 9.89126170 4.87968911 9.85499964 0 0 0
849 1 10.15502868 4.87968911 9.87053577 0 0 0
850 1 10.41879566 4.87968911 9.88607923 0 0 0
851 1 10.68256264 4.87968911 9.90163014 0 0 0
852 1 10.94632962 4.87968911 9.91718864 0 0 0
853 1 11.21009660 4.87968911 9.93275488 0 0 0
854 1 11.47386358 4.87968911 9.94832899 0 0 0
855 1 11.73763056 4.87968911 9.96391112 0 0 0
856 1 0.13188349 5.14345609 9.97950139 0 0 0
857 1 0.39565047 5.14345609 9.99509995 0 0 0
858 1 0.65941745 5.14345609 10.01070692 0 0 0
859 1 0.92318443 5.14345609 10.02632245 0 0 0
860 1 1.18695140 5.14345609 10.04194667 0 0 0
861 1 1.45071838 5.14345609 10.05757971 0 0 0
862 1 1.71448536 5.14345609 10.07322169 0 0 0
863 1 1.97825234 5.14345609 10.08887275 0 0 0
864 1 2.24201932 5.14345609 10.10453303 0 0 0
865 1 2.50578630 5.14345609 10.12020263 0 0 0
866 1 2.76955328 5.14345609 10.13588170 0 0 0
867 1 3.03332026 5.14345609 10.15157035 0 0 0
868 1 3.29708723 5.14345609 10.16726872 0 0 0
869 1 3.56085421 5.14345609 10.18297691 0 0 0
870 1 3.82462119 5.14345609 10.19869505 0 0 0
871 1 4.08838817 5.14345609 10.21442326 0 0 0
872 1 4.35215515 5.14345609 10.23016165 0 0 0
873 1 4.61592213 5.14345609 10.24591034 0 0 0
874 1 4.87968911 5.14345609 10.26166945 0 0 0
875 1 5.14345609 5.14345609 10.27743907 0 0 0
876 1 5.40722306 5.14345609 10.29321933 0 0 0
877 1 5.67099004 5.14345609 10.30901033 0 0 0
878 1 5.93475702 5.14345609 10.32481217 0 0 0
879 1 6.19852400 5.14345609 10.34062496 0 0 0
880 1 6.46229098 5.14345609 10.35644880 0 0 0
881 1 6.72605796 5.14345609 10.37228378 0 0 0
882 1 6.98982494 5.14345609 10.38813000 0 0 0
883 1 7.25359192 5.14345609 10.40398756 0 0 0
884 1 7.51735890 5.14345609 10.41985655 0 0 0
885 1 7.78112587 5.14345609 10.43573705 0 0 0
886 1 8.04489285 5.14345609 10.45162916 0 0 0
887 1 8.30865983 5.14345609 10.46753295 0 0 0
888 1 8.57242681 5.14345609 10.48344851 0 0 0
889 1 8.83619379 5.14345609 10.49937592 0 0 0
890 1 9.09996077 5.14345609 10.51531525 0 0 0
891 1 9.36372775 5.14345609 10.53126657 0 0 0
892 1 9.62749473 5.14345609 10.54722996 0 0 0
893 1 9.89126170 5.14345609 10.56320547 0 0 0
894 1 10.15502868 5.14345609 10.57919319 0 0 0
895 1 10.41879566 5.14345609 10.59519316 0 0 0
896 1 10.68256264 5.14345609 10.61120545 0 0 0
897 1 10.94632962 5.14345609 10.62723011 0 0 0
898 1 11.21009660 5.14345609 10.64326718 0 0 0
899 1 11.47386358 5.14345609 10.65931673 0 0 0
900 1 11.73763056 5.14345609 10.67537879 0 0 0
901 1 0.13188349 5.40722306 10.69145341 0 0 0
902 1 0.39565047 5.40722306 10.70754062 0 0 0
903 1 0.65941745 5.40722306 10.72364047 0 0 0
904 1 0.92318443 5.40722306 10.73975297 0 0 0
905 1 1.18695140 5.40722306 10.75587816 0 0 0
906 1 1.45071838 5.40722306 10.77201607 0 0 0
907 1 1.71448536 5.40722306 10.78816670 0 0 0
908 1 1.97825234 5.40722306 10.80433009 0 0 0
909 1 2.24201932 5.40722306 10.82050624 0 0 0
910 1 2.50578630 5.40722306 10.83669516 0 0 0
911 1 2.76955328 5.40722306 10.85289686 0 0 0
912 1 3.03332026 5.40722306 10.86911134 0 0 0
913 1 3.29708723 5.40722306 10.88533860 0 0 0
914 1 3.56085421 5.40722306 10.90157862 0 0 0
915 1 3.82462119 5.40722306 10.91783141 0 0 0
916 1 4.08838817 5.40722306 10.93409695 0 0 0
917 1 4.35215515 5.40722306 10.95037521 0 0 0
918 1 4.61592213 5.40722306 10.96666617 0 0 0
919 1 4.87968911 5.40722306 10.98296982 0 0 0
920 1 5.14345609 5.40722306 10.99928612 0 0 0
921 1 5.40722306 5.40722306 11.01561503 0 0 0
922 1 5.67099004 5.40722306 11.03195652 0 0 0
923 1 5.93475702 5.40722306 11.04831054 0 0 0
924 1 6.19852400 5.40722306 11.06467704 0 0 0
925 1 6.46229098 5.40722306 11.08105598 0 0 0
926 1 6.72605796 5.40722306 11.09744730 0 0 0
927 1 6.98982494 5.40722306 11.11385094 0 0 0
928 1 7.25359192 5.40722306 11.13026684 0 0 0
929 1 7.51735890 5.40722306 11.14669492 0 0 0
930 1 7.78112587 5.40722306 11.16313512 0 0 0
931 1 8.04489285 5.40722306 11.17958735 0 0 0
932 1 8.30865983 5.40722306 11.19605155 0 0 0
933 1 8.57242681 5.40722306 11.21252761 0 0 0
934 1 8.83619379 5.40722306 11.22901546 0 0 0
935 1 9.09996077 5.40722306 11.24551501 0 0 0
936 1 9.36372775 5.40722306 11.26202614 0 0 0
937 1 9.62749473 5.40722306 11.27854876 0 0 0
938 1 9.89126170 5.40722306 11.29508277 0 0 0
939 1 10.15502868 5.40722306 11.31162806 0 0 0
940 1 10.41879566 5.40722306 11.32818451 0 0 0
941 1 10.68256264 5.40722306 11.34475200 0 0 0
942 1 10.94632962 5.40722306 11.36133041 0 0 0
943 1 11.21009660 5.40722306 11.37791962 0 0 0
944 1 11.47386358 5.40722306 11.39451949 0 0 0
945 1 11.73763056 5.40722306 11.41112990 0 0 0
946 1 0.13188349 5.67099004 11.42775070 0 0 0
947 1 0.39565047 5.67099004 11.44438175 0 0 0
948 1 0.65941745 5.67099004 11.46102291 0 0 0
949 1 0.92318443 5.67099004 11.47767403 0 0 0
950 1 1.18695140 5.67099004 11.49433496 0 0 0
951 1 1.45071838 5.67099004 11.51100554 0 0 0
952 1 1.71448536 5.67099004 11.52768561 0 0 0
953 1 1.97825234 5.67099004 11.54437501 0 0 0
954 1 2.24201932 5.67099004 11.56107357 0 0 0
955 1 2.50578630 5.67099004 11.57778113 0 0 0
956 1 2.76955328 5.67099004 11.59449751 0 0 0
957 1 3.03332026 5.67099004 11.61122253 0 0 0
958 1 3.29708723 5.67099004 11.62795603 0 0 0
959 1 3.56085421 5.67099004 11.64469781 0 0 0
960 1 3.82462119 5.67099004 11.66144769 0 0 0
961 1 4.08838817 5.67099004 11.67820549 0 0 0
962 1 4.35215515 5.67099004 11.69497102 0 0 0
963 1 4.61592213 5.67099004 11.71174408 0 0 0
964 1 4.87968911 5.67099004 11.72852448 0 0 0
965 1 5.14345609 5.67099004 11.74531202 0 0 0
966 1 5.40722306 5.67099004 11.76210652 0 0 0
967 1 5.67099004 5.67099004 11.77890775 0 0 0
968 1 5.93475702 5.67099004 11.79571553 0 0 0
969 1 6.19852400 5.67099004 11.81252965 0 0 0
970 1 6.46229098 5.67099004 11.82934991 0 0 0
971 1 6.72605796 5.67099004 11.84617608 0 0 0
972 1 6.98982494 5.67099004 11.86300798 0 0 0
973 1 7.25359192 5.67099004 11.87984538 0 0 0
974 1 7.51735890 5.67099004 11.89668807 0 0 0
975 1 7.78112587 5.67099004 11.91353585 0 0 0
976 1 8.04489285 5.67099004 11.93038849 0 0 0
977 1 8.30865983 5.67099004 11.94724580 0 0 0
978 1 8.57242681 5.67099004 11.96410754 0 0 0
979 1 8.83619379 5.67099004 11.98097351 0 0 0
980 1 9.09996077 5.67099004 11.99784348 0 0 0
981 1 9.36372775 5.67099004 12.01471726 0 0 0
982 1 9.62749473 5.67099004 12.03159461 0 0 0
983 1 9.89126170 5.67099004 12.04847532 0 0 0
984 1 10.15502868 5.67099004 12.06535919 0 0 0
985 1 10.41879566 5.67099004 12.08224598 0 0 0
986 1 10.68256264 5.67099004 12.09913550 0 0 0
987 1 10.94632962 5.67099004 12.11602752 0 0 0
988 1 11.21009660 5.67099004 12.13292183 0 0 0
989 1 11.47386358 5.67099004 12.14981822 0 0 0
990 1 11.73763056 5.67099004 12.16671648 0 0 0
991 1 0.13188349 5.93475702 12.18361640 0 0 0
992 1 0.39565047 5.93475702 12.20051777 0 0 0
993 1 0.65941745 5.93475702 12.21742039 0 0 0
994 1 0.92318443 5.93475702 12.23432405 0 0 0
995 1 1.18695140 5.93475702 12.25122854 0 0 0
996 1 1.45071838 5.93475702 12.26813367 0 0 0
997 1 1.71448536 5.93475702 12.28503924 0 0 0
998 1 1.97825234 5.93475702 12.30194504 0 0 0
999 1 2.24201932 5.93475702 12.31885089 0 0 0
1000 1 2.50578630 5.93475702 12.33575660 0 0 0
1001 1 2.76955328 5.93475702 12.35266197 0 0 0
1002 1 3.03332026 5.93475702 12.36956681 0 0 0
1003 1 3.29708723 5.93475702 12.38647095 0 0 0
1004 1 3.56085421 5.93475702 12.40337420 0 0 0
1005 1 3.82462119 5.93475702 12.42027639 0 0 0
1006 1 4.08838817 5.93475702 12.43717734 0 0 0
1007 1 4.35215515 5.93475702 12.45407688 0 0 0
1008 1 4.61592213 5.93475702 12.47097485 0 0 0
1009 1 4.87968911 5.93475702 12.48787108 0 0 0
1010 1 5.14345609 5.93475702 12.50476540 0 0 0
1011 1 5.40722306 5.93475702 12.52165768 0 0 0
1012 1 5.67099004 5.93475702 12.53854774 0 0 0
1013 1 5.93475702 5.93475702 12.55543545 0 0 0
1014 1 6.19852400 5.93475702 12.57232066 0 0 0
1015 1 6.46229098 5.93475702 12.58920324 0 0 0
1016 1 6.72605796 5.93475702 12.60608304 0 0 0
1017 1 6.98982494 5.93475702 12.62295994 0 0 0
1018 1 7.25359192 5.93475702 12.63983381 0 0 0
1019 1 7.51735890 5.93475702 12.65670454 0 0 0
1020 1 7.78112587 5.93475702 12.67357199 0 0 0
1021 1 8.04489285 5.93475702 12.69043607 0 0 0
1022 1 8.30865983 5.93475702 12.70729667 0 0 0
1023 1 8.57242681 5.93475702 12.72415368 0 0 0
1024 1 8.83619379 5.93475702 12.74100700 0 0 0
1025 1 9.09996077 5.93475702 12.75785656 0 0 0
1026 1 9.36372775 5.93475702 12.77470225 0 0 0
1027 1 9.62749473 5.93475702 12.79154401 0 0 0
1028 1 9.89126170 5.93475702 12.80838175 0 0 0
1029 1 10.15502868 5.93475702 12.82521540 0 0 0
1030 1 10.41879566 5.93475702 12.84204490 0 0 0
1031 1 10.68256264 5.93475702 12.85887020 0 0 0
1032 1 10.94632962 5.93475702 12.87569123 0 0 0
1033 1 11.21009660 5.93475702 12.89250795 0 0 0
1034 1 11.47386358 5.93475702 12.90932032 0 0 0
1035 1 11.73763056 5.93475702 12.92612830 0 0 0
1036 1 0.13188349 6.19852400 12.94293186 0 0 0
1037 1 0.39565047 6.19852400 12.95973097 0 0 0
1038 1 0.65941745 6.19852400 12.97652562 0 0 0
1039 1 0.92318443 6.19852400 12.99331579 0 0 0
1040 1 1.18695140 6.19852400 13.01010147 0 0 0
1041 1 1.45071838 6.19852400 13.02688267 0 0 0
1042 1 1.71448536 6.19852400 13.04365939 0 0 0
1043 1 1.97825234 6.19852400 13.06043163 0 0 0
1044 1 2.24201932 6.19852400 13.07719942 0 0 0
1045 1 2.50578630 6.19852400 13.09396277 0 0 0
1046 1 2.76955328 6.19852400 13.11072172 0 0 0
1047 1 3.03332026 6.19852400 13.12747629 0 0 0
1048 1 3.29708723 6.19852400 13.14422653 0 0 0
1049 1 3.56085421 6.19852400 13.16097249 0 0 0
1050 1 3.82462119 6.19852400 13.17771422 0 0 0
1051 1 4.08838817 6.19852400 13.19445177 0 0 0
1052 1 4.35215515 6.19852400 13.21118520 0 0 0
1053 1 4.61592213 6.19852400 13.22791460 0 0 0
1054 1 4.87968911 6.19852400 13.24464003 0 0 0
1055 1 5.14345609 6.19852400 13.26136158 0 0 0
1056 1 5.40722306 6.19852400 13.27807934 0 0 0
1057 1 5.67099004 6.19852400 13.29479339 0 0 0
1058 1 5.93475702 6.19852400 13.31150385 0 0 0
1059 1 6.19852400 6.19852400 13.32821081 0 0 0
1060 1 6.46229098 6.19852400 13.34491439 0 0 0
1061 1 6.72605796 6.19852400 13.36161471 0 0 0
1062 1 6.98982494 6.19852400 13.37831189 0 0 0
1063 1 7.25359192 6.19852400 13.39500606 0 0 0
1064 1 7.51735890 6.19852400 13.41169735 0 0 0
1065 1 7.78112587 6.19852400 13.42838592 0 0 0
1066 1 8.04489285 6.19852400 13.44507190 0 0 0
1067 1 8.30865983 6.19852400 13.46175545 0 0 0
1068 1 8.57242681 6.19852400 13.47843673 0 0 0
1069 1 8.83619379 6.19852400 13.49511590 0 0 0
1070 1 9.09996077 6.19852400 13.51179314 0 0 0
1071 1 9.36372775 6.19852400 13.52846862 0 0 0
1072 1 9.62749473 6.19852400 13.54514253 0 0 0
1073 1 9.89126170 6.19852400 13.56181504 0 0 0
1074 1 10.15502868 6.19852400 13.57848637 0 0 0
1075 1 10.41879566 6.19852400 13.59515670 0 0 0
1076 1 10.68256264 6.19852400 13.61182625 0 0 0
1077 1 10.94632962 6.19852400 13.62849521 0 0 0
1078 1 11.21009660 6.19852400 13.64516382 0 0 0
1079 1 11.47386358 6.19852400 13.66183229 0 0 0
1080 1 11.73763056 6.19852400 13.67850085 0 0 0
1081 1 0.13188349 6.46229098 13.69516974 0 0 0
1082 1 0.39565047 6.46229098 13.71183919 0 0 0
1083 1 0.65941745 6.46229098 13.72850944 0 0 0
1084 1 0.92318443 6.46229098 13.74518075 0 0 0
1085 1 1.18695140 6.46229098 13.76185338 0 0 0
1086 1 1.45071838 6.46229098 13.77852758 0 0 0
1087 1 1.71448536 6.46229098 13.79520362 0 0 0
1088 1 1.97825234 6.46229098 13.81188178 0 0 0
1089 1 2.24201932 6.46229098 13.82856232 0 0 0
1090 1 2.50578630 6.46229098 13.84524554 0 0 0
1091 1 2.76955328 6.46229098 13.86193171 0 0 0
1092 1 3.03332026 6.46229098 13.87862115 0 0 0
1093 1 3.29708723 6.46229098 13.89531413 0 0 0
1094 1 3.56085421 6.46229098 13.91201097 0 0 0
1095 1 3.82462119 6.46229098 13.92871198 0 0 0
1096 1 4.08838817 6.46229098 13.94541747 0 0 0
1097 1 4.35215515 6.46229098 13.96212776 0 0 0
1098 1 4.61592213 6.46229098 13.97884317 0 0 0
1099 1 4.87968911 6.46229098 13.99556404 0 0 0
1100 1 5.14345609 6.46229098 14.01229071 0 0 0
1101 1 5.40722306 6.46229098 14.02902350 0 0 0
1102 1 5.67099004 6.46229098 14.04576278 0 0 0
1103 1 5.93475702 6.46229098 14.06250888 0 0 0
1104 1 6.19852400 6.46229098 14.07926217 0 0 0
1105 1 6.46229098 6.46229098 14.09602300 0 0 0
1106 1 6.72605796 6.46229098 14.11279175 0 0 0
1107 1 6.98982494 6.46229098 14.12956878 0 0 0
1108 1 7.25359192 6.46229098 14.14635447 0 0 0
1109 1 7.51735890 6.46229098 14.16314921 0 0 0
1110 1 7.78112587 6.46229098 14.17995338 0 0 0
1111 1 8.04489285 6.46229098 14.19676736 0 0 0
1112 1 8.30865983 6.46229098 14.21359157 0 0 0
1113 1 8.57242681 6.46229098 14.23042639 0 0 0
1114 1 8.83619379 6.46229098 14.24727224 0 0 0
1115 1 9.09996077 6.46229098 14.26412953 0 0 0
1116 1 9.36372775 6.46229098 14.28099868 0 0 0
1117 1 9.62749473 6.46229098 14.29788010 0 0 0
1118 1 9.89126170 6.46229098 14.31477422 0 0 0
1119 1 10.15502868 6.46229098 14.33168148 0 0 0
1120 1 10.41879566 6.46229098 14.34860232 0 0 0
1121 1 10.68256264 6.46229098 14.36553716 0 0 0
1122 1 10.94632962 6.46229098 14.38248647 0 0 0
1123 1 11.21009660 6.46229098 14.39945068 0 0 0
1124 1 11.47386358 6.46229098 14.41643027 0 0 0
1125 1 11.73763056 6.46229098 14.43342568 0 0 0
1126 1 0.13188349 6.72605796 14.45043738 0 0 0
1127 1 0.39565047 6.72605796 14.46746585 0 0 0
1128 1 0.65941745 6.72605796 14.48451156 0 0 0
1129 1 0.92318443 6.72605796 14.50157499 0 0 0
1130 1 1.18695140 6.72605796 14.51865663 0 0 0
1131 1 1.45071838 6.72605796 14.53575696 0 0 0
1132 1 1.71448536 6.72605796 14.55287647 0 0 0
1133 1 1.97825234 6.72605796 14.57001568 0 0 0
1134 1 2.24201932 6.72605796 14.58717507 0 0 0
1135 1 2.50578630 6.72605796 14.60435517 0 0 0
1136 1 2.76955328 6.72605796 14.62155648 0 0 0
1137 1 3.03332026 6.72605796 14.63877951 0 0 0
1138 1 3.29708723 6.72605796 14.65602480 0 0 0
1139 1 3.56085421 6.72605796 14.67329286 0 0 0
1140 1 3.82462119 6.72605796 14.69058423 0 0 0
1141 1 4.08838817 6.72605796 14.70789944 0 0 0
1142 1 4.35215515 6.72605796 14.72523903 0 0 0
1143 1 4.61592213 6.72605796 14.74260354 0 0 0
1144 1 4.87968911 6.72605796 14.75999352 0 0 0
1145 1 5.14345609 6.72605796 14.77740953 0 0 0
1146 1 5.40722306 6.72605796 14.79485211 0 0 0
1147 1 5.67099004 6.72605796 14.81232183 0 0 0
1148 1 5.93475702 6.72605796 14.82981924 0 0 0
1149 1 6.19852400 6.72605796 14.84734492 0 0 0
1150 1 6.46229098 6.72605796 14.86489943 0 0 0
1151 1 6.72605796 6.72605796 14.88248335 0 0 0
1152 1 6.98982494 6.72605796 14.90009726 0 0 0
1153 1 7.25359192 6.72605796 14.91774173 0 0 0
1154 1 7.51735890 6.72605796 14.93541735 0 0 0
1155 1 7.78112587 6.72605796 14.95312470 0 0 0
1156 1 8.04489285 6.72605796 14.97086437 0 0 0
1157 1 8.30865983 6.72605796 14.98863695 0 0 0
1158 1 8.57242681 6.72605796 15.00644305 0 0 0
1159 1 8.83619379 6.72605796 15.02428324 0 0 0
1160 1 9.09996077 6.72605796 15.04215813 0 0 0
1161 1 9.36372775 6.72605796 15.06006833 0 0 0
1162 1 9.62749473 6.72605796 15.07801442 0 0 0
1163 1 9.89126170 6.72605796 15.09599702 0 0 0
1164 1 10.15502868 6.72605796 15.11401672 0 0 0
1165 1 10.41879566 6.72605796 15.13207414 0 0 0
1166 1 10.68256264 6.72605796 15.15016987 0 0 0
1167 1 10.94632962 6.72605796 15.16830452 0 0 0
1168 1 11.21009660 6.72605796 15.18647869 0 0 0
1169 1 11.47386358 6.72605796 15.20469299 0 0 0
1170 1 11.73763056 6.72605796 15.22294803 0 0 0
1171 1 0.13188349 6.98982494 15.24124440 0 0 0
1172 1 0.39565047 6.98982494 15.25958270 0 0 0
1173 1 0.65941745 6.98982494 15.27796354 0 0 0
1174 1 0.92318443 6.98982494 15.29638750 0 0 0
1175 1 1.18695140 6.98982494 15.31485518 0 0 0
1176 1 1.45071838 6.98982494 15.33336717 0 0 0
1177 1 1.71448536 6.98982494 15.35192406 0 0 0
1178 1 1.97825234 6.98982494 15.37052642 0 0 0
1179 1 2.24201932 6.98982494 15.38917482 0 0 0
1180 1 2.50578630 6.98982494 15.40786985 0 0 0
1181 1 2.76955328 6.98982494 15.42661205 0 0 0
1182 1 3.03332026 6.98982494 15.44540198 0 0 0
1183 1 3.29708723 6.98982494 15.46424020 0 0 0
1184 1 3.56085421 6.98982494 15.48312724 0 0 0
1185 1 3.82462119 6.98982494 15.50206362 0 0 0
1186 1 4.08838817 6.98982494 15.52104987 0 0 0
1187 1 4.35215515 6.98982494 15.54008649 0 0 0
1188 1 4.61592213 6.98982494 15.55917398 0 0 0
1189 1 4.87968911 6.98982494 15.57831282 0 0 0
1190 1 5.14345609 6.98982494 15.59750347 0 0 0
1191 1 5.40722306 6.98982494 15.61674639 0 0 0
1192 1 5.67099004 6.98982494 15.63604202 0 0 0
1193 1 5.93475702 6.98982494 15.65539077 0 0 0
1194 1 6.19852400 6.98982494 15.67479305 0 0 0
1195 1 6.46229098 6.98982494 15.69424923 0 0 0
1196 1 6.72605796 6.98982494 15.71375967 0 0 0
1197 1 6.98982494 6.98982494 15.73332471 0 0 0
1198 1 7.25359192 6.98982494 15.75294467 0 0 0
1199 1 7.51735890 6.98982494 15.77261983 0 0 0
1200 1 7.78112587 6.98982494 15.79235046 0 0 0
1201 1 8.04489285 6.98982494 15.81213679 0 0 0
1202 1 8.30865983 6.98982494 15.83197902 0 0 0
1203 1 8.57242681 6.98982494 15.85187732 0 0 0
1204 1 8.83619379 6.98982494 15.87183185 0 0 0
1205 1 9.09996077 6.98982494 15.89184269 0 0 0
1206 1 9.36372775 6.98982494 15.91190994 0 0 0
1207 1 9.62749473 6.98982494 15.93203361 0 0 0
1208 1 9.89126170 6.98982494 15.95221370 0 0 0
1209 1 10.15502868 6.98982494 15.97245016 0 0 0
1210 1 10.41879566 6.98982494 15.99274290 0 0 0
1211 1 10.68256264 6.98982494 16.01309178 0 0 0
1212 1 10.94632962 6.98982494 16.03349662 0 0 0
1213 1 11.21009660 6.98982494 16.05395719 0 0 0
1214 1 11.47386358 6.98982494 16.07447320 0 0 0
1215 1 11.73763056 6.98982494 16.09504432 0 0 0
1216 1 0.13188349 7.25359192 16.11567016 0 0 0
1217 1 0.39565047 7.25359192 16.13635026 0 0 0
1218 1 0.65941745 7.25359192 16.15708413 0 0 0
1219 1 0.92318443 7.25359192 16.17787120 0 0 0
1220 1 1.18695140 7.25359192 16.19871084 0 0 0
1221 1 1.45071838 7.25359192 16.21960235 0 0 0
1222 1 1.71448536 7.25359192 16.24054498 0 0 0
1223 1 1.97825234 7.25359192 16.26153791 0 0 0
1224 1 2.24201932 7.25359192 16.28258024 0 0 0
1225 1 2.50578630 7.25359192 16.30367101 0 0 0
1226 1 2.76955328 7.25359192 16.32480918 0 0 0
1227 1 3.03332026 7.25359192 16.34599364 0 0 0
1228 1 3.29708723 7.25359192 16.36722320 0 0 0
1229 1 3.56085421 7.25359192 16.38849661 0 0 0
1230 1 3.82462119 7.25359192 16.40981252 0 0 0
1231 1 4.08838817 7.25359192 16.43116954 0 0 0
1232 1 4.35215515 7.25359192 16.45256615 0 0 0
1233 1 4.61592213 7.25359192 16.47400080 0 0 0
1234 1 4.87968911 7.25359192 16.49547182 0 0 0
1235 1 5.14345609 7.25359192 16.51697750 0 0 0
1236 1 5.40722306 7.25359192 16.53851603 0 0 0
1237 1 5.67099004 7.25359192 16.56008551 0 0 0
1238 1 5.93475702 7.25359192 16.58168400 0 0 0
1239 1 6.19852400 7.25359192 16.60330943 0 0 0
1240 1 6.46229098 7.25359192 16.62495971 0 0 0
1241 1 6.72605796 7.25359192 16.64663263 0 0 0
1242 1 6.98982494 7.25359192 16.66832594 0 0 0
1243 1 7.25359192 7.25359192 16.69003730 0 0 0
1244 1 7.51735890 7.25359192 16.71176431 0 0 0
1245 1 7.78112587 7.25359192 16.73350449 0 0 0
1246 1 8.04489285 7.25359192 16.75525532 0 0 0
1247 1 8.30865983 7.25359192 16.77701420 0 0 0
1248 1 8.57242681 7.25359192 16.79877848 0 0 0
1249 1 8.83619379 7.25359192 16.82054545 0 0 0
1250 1 9.09996077 7.25359192 16.84231237 0 0 0
1251 1 9.36372775 7.25359192 16.86407643 0 0 0
1252 1 9.62749473 7.25359192 16.88583478 0 0 0
1253 1 9.89126170 7.25359192 16.90758455 0 0 0
1254 1 10.15502868 7.25359192 16.92932283 0 0 0
1255 1 10.41879566 7.25359192 16.95104668 0 0 0
1256 1 10.68256264 7.25359192 16.97275313 0 0 0
1257 1 10.94632962 7.25359192 16.99443921 0 0 0
1258 1 11.21009660 7.25359192 17.01610192 0 0 0
1259 1 11.47386358 7.25359192 17.03773826 0 0 0
1260 1 11.73763056 7.25359192 17.05934524 0 0 0
1261 1 0.13188349 7.51735890 17.08091985 0 0 0
1262 1 0.39565047 7.51735890 17.10245912 0 0 0
1263 1 0.65941745 7.51735890 17.12396005 0 0 0
1264 1 0.92318443 7.51735890 17.14541971 0 0 0
1265 1 1.18695140 7.51735890 17.16683517 0 0 0
1266 1 1.45071838 7.51735890 17.18820353 0 0 0
1267 1 1.71448536 7.51735890 17.20952193 0 0 0
1268 1 1.97825234 7.51735890 17.23078756 0 0 0
1269 1 2.24201932 7.51735890 17.25199763 0 0 0
1270 1 2.50578630 7.51735890 17.27314942 0 0 0
1271 1 2.76955328 7.51735890 17.29424028 0 0 0
1272 1 3.03332026 7.51735890 17.31526758 0 0 0
1273 1 3.29708723 7.51735890 17.33622878 0 0 0
1274 1 3.56085421 7.51735890 17.35712140 0 0 0
1275 1 3.82462119 7.51735890 17.37794304 0 0 0
1276 1 4.08838817 7.51735890 17.39869135 0 0 0
1277 1 4.35215515 7.51735890 17.41936408 0 0 0
1278 1 4.61592213 7.51735890 17.43995904 0 0 0
1279 1 4.87968911 7.51735890 17.46047414 0 0 0
1280 1 5.14345609 7.51735890 17.48090735 0 0 0
1281 1 5.40722306 7.51735890 17.50125674 0 0 0
1282 1 5.67099004 7.51735890 17.52152047 0 0 0
1283 1 5.93475702 7.51735890 17.54169677 0 0 0
1284 1 6.19852400 7.51735890 17.56178397 0 0 0
1285 1 6.46229098 7.51735890 17.58178049 0 0 0
1286 1 6.72605796 7.51735890 17.60168483 0 0 0
1287 1 6.98982494 7.51735890 17.62149559 0 0 0
1288 1 7.25359192 7.51735890 17.64121144 0 0 0
1289 1 7.51735890 7.51735890 17.66083116 0 0 0
1290 1 7.78112587 7.51735890 17.68035359 0 0 0
1291 1 8.04489285 7.51735890 17.69977769 0 0 0
1292 1 8.30865983 7.51735890 17.71910249 0 0 0
1293 1 8.57242681 7.51735890 17.73832708 0 0 0
1294 1 8.83619379 7.51735890 17.75745067 0 0 0
1295 1 9.09996077 7.51735890 17.77647254 0 0 0
1296 1 9.36372775 7.51735890 17.79539203 0 0 0
1297 1 9.62749473 7.51735890 17.81420857 0 0 0
1298 1 9.89126170 7.51735890 17.83292168 0 0 0
1299 1 10.15502868 7.51735890 17.85153093 0 0 0
1300 1 10.41879566 7.51735890 17.87003598 0 0 0
1301 1 10.68256264 7.51735890 17.88843654 0 0 0
1302 1 10.94632962 7.51735890 17.90673239 0 0 0
1303 1 11.21009660 7.51735890 17.92492339 0 0 0
1304 1 11.47386358 7.51735890 17.94300945 0 0 0
1305 1 11.73763056 7.51735890 17.96099055 0 0 0
1306 1 0.13188349 7.78112587 17.97886670 0 0 0
1307 1 0.39565047 7.78112587 17.99663800 0 0 0
1308 1 0.65941745 7.78112587 18.01430458 0 0 0
1309 1 0.92318443 7.78112587 18.03186663 0 0 0
1310 1 1.18695140 7.78112587 18.04932438 0 0 0
1311 1 1.45071838 7.78112587 18.06667811 0 0 0
1312 1 1.71448536 7.78112587 18.08392814 0 0 0
1313 1 1.97825234 7.78112587 18.10107484 0 0 0
1314 1 2.24201932 7.78112587 18.11811860 0 0 0
1315 1 2.50578630 7.78112587 18.13505988 0 0 0
1316 1 2.76955328 7.78112587 18.15189913 0 0 0
1317 1 3.03332026 7.78112587 18.16863688 0 0 0
1318 1 3.29708723 7.78112587 18.18527365 0 0 0
1319 1 3.56085421 7.78112587 18.20181001 0 0 0
1320 1 3.82462119 7.78112587 18.21824655 0 0 0
1321 1 4.08838817 7.78112587 18.23458389 0 0 0
1322 1 4.35215515 7.78112587 18.25082267 0 0 0
1323 1 4.61592213 7.78112587 18.26696355 0 0 0
1324 1 4.87968911 7.78112587 18.28300721 0 0 0
1325 1 5.14345609 7.78112587 18.29895435 0 0 0
1326 1 5.40722306 7.78112587 18.31480569 0 0 0
1327 1 5.67099004 7.78112587 18.33056196 0 0 0
1328 1 5.93475702 7.78112587 18.34622391 0 0 0
1329 1 6.19852400 7.78112587 18.36179228 0 0 0
1330 1 6.46229098 7.78112587 18.37726786 0 0 0
1331 1 6.72605796 7.78112587 18.39265143 0 0 0
1332 1 6.98982494 7.78112587 18.40794376 0 0 0
1333 1 7.25359192 7.78112587 18.42314567 0 0 0
1334 1 7.51735890 7.78112587 18.43825795 0 0 0
1335 1 7.78112587 7.78112587 18.45328140 0 0 0
1336 1 8.04489285 7.78112587 18.46821686 0 0 0
1337 1 8.30865983 7.78112587 18.48306513 0 0 0
1338 1 8.57242681 7.78112587 18.49782704 0 0 0
1339 1 8.83619379 7.78112587 18.51250341 0 0 0
1340 1 9.09996077 7.78112587 18.52709507 0 0 0
1341 1 9.36372775 7.78112587 18.54160284 0 0 0
1342 1 9.62749473 7.78112587 18.55602756 0 0 0
1343 1 9.89126170 7.78112587 18.57037005 0 0 0
1344 1 10.15502868 7.78112587 18.58463113 0 0 0
1345 1 10.41879566 7.78112587 18.59881163 0 0 0
1346 1 10.68256264 7.78112587 18.61291238 0 0 0
1347 1 10.94632962 7.78112587 18.62693419 0 0 0
1348 1 11.21009660 7.78112587 18.64087788 0 0 0
1349 1 11.47386358 7.78112587 18.65474427 0 0 0
1350 1 11.73763056 7.78112587 18.66853416 0 0 0
1351 1 0.13188349 8.04489285 18.68224837 0 0 0
1352 1 0.39565047 8.04489285 18.69588769 0 0 0
1353 1 0.65941745 8.04489285 18.70945293 0 0 0
1354 1 0.92318443 8.04489285 18.72294486 0 0 0
1355 1 1.18695140 8.04489285 18.73636429 0 0 0
1356 1 1.45071838 8.04489285 18.74971200 0 0 0
1357 1 1.71448536 8.04489285 18.76298875 0 0 0
1358 1 1.97825234 8.04489285 18.77619532 0 0 0
1359 1 2.24201932 8.04489285 18.78933248 0 0 0
1360 1 2.50578630 8.04489285 18.80240097 0 0 0
1361 1 2.76955328 8.04489285 18.81540155 0 0 0
1362 1 3.03332026 8.04489285 18.82833497 0 0 0
1363 1 3.29708723 8.04489285 18.84120197 0 0 0
1364 1 3.56085421 8.04489285 18.85400326 0 0 0
1365 1 3.82462119 8.04489285 18.86673959 0 0 0
1366 1 4.08838817 8.04489285 18.87941166 0 0 0
1367 1 4.35215515 8.04489285 18.89202018 0 0 0
1368 1 4.61592213 8.04489285 18.90456586 0 0 0
1369 1 4.87968911 8.04489285 18.91704939 0 0 0
1370 1 5.14345609 8.04489285 18.92947146 0 0 0
1371 1 5.40722306 8.04489285 18.94183276 0 0 0
1372 1 5.67099004 8.04489285 18.95413395 0 0 0
1373 1 5.93475702 8.04489285 18.96637570 0 0 0
1374 1 6.19852400 8.04489285 18.97855867 0 0 0
1375 1 6.46229098 8.04489285 18.99068352 0 0 0
1376 1 6.72605796 8.04489285 19.00275088 0 0 0
1377 1 6.98982494 8.04489285 19.01476139 0 0 0
1378 1 7.25359192 8.04489285 19.02671570 0 0 0
1379 1 7.51735890 8.04489285 19.03861440 0 0 0
1380 1 7.78112587 8.04489285 19.05045813 0 0 0
1381 1 8.04489285 8.04489285 19.06224749 0 0 0
1382 1 8.30865983 8.04489285 19.07398308 0 0 0
1383 1 8.57242681 8.04489285 19.08566550 0 0 0
1384 1 8.83619379 8.04489285 19.09729532 0 0 0
1385 1 9.09996077 8.04489285 19.10887314 0 0 0
1386 1 9.36372775 8.04489285 19.12039952 0 0 0
1387 1 9.62749473 8.04489285 19.13187504 0 0 0
1388 1 9.89126170 8.04489285 19.14330024 0 0 0
1389 1 10.15502868 8.04489285 19.15467568 0 0 0
1390 1 10.41879566 8.04489285 19.16600191 0 0 0
1391 1 10.68256264 8.04489285 19.17727946 0 0 0
1392 1 10.94632962 8.04489285 19.18850887 0 0 0
1393 1 11.21009660 8.04489285 19.19969066 0 0 0
1394 1 11.47386358 8.04489285 19.21082536 0 0 0
1395 1 11.73763056 8.04489285 19.22191346 0 0 0
1396 1 0.13188349 8.30865983 19.23295549 0 0 0
1397 1 0.39565047 8.30865983 19.24395193 0 0 0
1398 1 0.65941745 8.30865983 19.25490328 0 0 0
1399 1 0.92318443 8.30865983 19.26581004 0 0 0
1400 1 1.18695140 8.30865983 19.27667267 0 0 0
1401 1 1.45071838 8.30865983 19.28749166 0 0 0
1402 1 1.71448536 8.30865983 19.29826747 0 0 0
1403 1 1.97825234 8.30865983 19.30900057 0 0 0
1404 1 2.24201932 8.30865983 19.31969141 0 0 0
1405 1 2.50578630 8.30865983 19.33034045 0 0 0
1406 1 2.76955328 8.30865983 19.34094813 0 0 0
1407 1 3.03332026 8.30865983 19.35151489 0 0 0
1408 1 3.29708723 8.30865983 19.36204117 0 0 0
1409 1 3.56085421 8.30865983 19.37252739 0 0 0
1410 1 3.82462119 8.30865983 19.38297398 0 0 0
1411 1 4.08838817 8.30865983 19.39338135 0 0 0
1412 1 4.35215515 8.30865983 19.40374993 0 0 0
1413 1 4.61592213 8.30865983 19.41408011 0 0 0
1414 1 4.87968911 8.30865983 19.42437231 0 0 0
1415 1 5.14345609 8.30865983 19.43462691 0 0 0
1416 1 5.40722306 8.30865983 19.44484432 0 0 0
1417 1 5.67099004 8.30865983 19.45502491 0 0 0
1418 1 5.93475702 8.30865983 19.46516907 0 0 0
1419 1 6.19852400 8.30865983 19.47527718 0 0 0
1420 1 6.46229098 8.30865983 19.48534961 0 0 0
1421 1 6.72605796 8.30865983 19.49538674 0 0 0
1422 1 6.98982494 8.30865983 19.50538892 0 0 0
1423 1 7.25359192 8.30865983 19.51535651 0 0 0
1424 1 7.51735890 8.30865983 19.52528988 0 0 0
1425 1 7.78112587 8.30865983 19.53518936 0 0 0
1426 1 8.04489285 8.30865983 19.54505531 0 0 0
1427 1 8.30865983 8.30865983 19.55488807 0 0 0
1428 1 8.57242681 8.30865983 19.56468797 0 0 0
1429 1 8.83619379 8.30865983 19.57445535 0 0 0
1430 1 9.09996077 8.30865983 19.58419054 0 0 0
1431 1 9.36372775 8.30865983 19.59389387 0 0 0
1432 1 9.62749473 8.30865983 19.60356565 0 0 0
1433 1 9.89126170 8.30865983 19.61320620 0 0 0
1434 1 10.15502868 8.30865983 19.62281584 0 0 0
1435 1 10.41879566 8.30865983 19.63239487 0 0 0
1436 1 10.68256264 8.30865983 19.64194361 0 0 0
1437 1 10.94632962 8.30865983 19.65146235 0 0 0
1438 1 11.21009660 8.30865983 19.66095140 0 0 0
1439 1 11.47386358 8.30865983 19.67041104 0 0 0
1440 1 11.73763056 8.30865983 19.67984157 0 0 0
1441 1 0.13188349 8.57242681 19.68924328 0 0 0
1442 1 0.39565047 8.57242681 19.69861645 0 0 0
1443 1 0.65941745 8.57242681 19.70796137 0 0 0
1444 1 0.92318443 8.57242681 19.71727830 0 0 0
1445 1 1.18695140 8.57242681 19.72656753 0 0 0
1446 1 1.45071838 8.57242681 19.73582933 0 0 0
1447 1 1.71448536 8.57242681 19.74506396 0 0 0
1448 1 1.97825234 8.57242681 19.75427169 0 0 0
1449 1 2.24201932 8.57242681 19.76345278 0 0 0
1450 1 2.50578630 8.57242681 19.77260749 0 0 0
1451 1 2.76955328 8.57242681 19.78173607 0 0 0
1452 1 3.03332026 8.57242681 19.79083878 0 0 0
1453 1 3.29708723 8.57242681 19.79991587 0 0 0
1454 1 3.56085421 8.57242681 19.80896758 0 0 0
1455 1 3.82462119 8.57242681 19.81799416 0 0 0
1456 1 4.08838817 8.57242681 19.82699585 0 0 0
1457 1 4.35215515 8.57242681 19.83597288 0 0 0
1458 1 4.61592213 8.57242681 19.84492550 0 0 0
1459 1 4.87968911 8.57242681 19.85385394 0 0 0
1460 1 5.14345609 8.57242681 19.86275842 0 0 0
1461 1 5.40722306 8.57242681 19.87163917 0 0 0
1462 1 5.67099004 8.57242681 19.88049642 0 0 0
1463 1 5.93475702 8.57242681 19.88933040 0 0 0
1464 1 6.19852400 8.57242681 19.89814131 0 0 0
1465 1 6.46229098 8.57242681 19.90692939 0 0 0
1466 1 6.72605796 8.57242681 19.91569484 0 0 0
1467 1 6.98982494 8.57242681 19.92443787 0 0 0
1468 1 7.25359192 8.57242681 19.93315870 0 0 0
1469 1 7.51735890 8.57242681 19.94185754 0 0 0
1470 1 7.78112587 8.57242681 19.95053459 0 0 0
1471 1 8.04489285 8.57242681 19.95919005 0 0 0
1472 1 8.30865983 8.57242681 19.96782412 0 0 0
1473 1 8.57242681 8.57242681 19.97643702 0 0 0
1474 1 8.83619379 8.57242681 19.98502892 0 0 0
1475 1 9.09996077 8.57242681 19.99360003 0 0 0
1476 1 9.36372775 8.57242681 20.00215054 0 0 0
1477 1 9.62749473 8.57242681 20.01068064 0 0 0
1478 1 9.89126170 8.57242681 20.01919051 0 0 0
1479 1 10.15502868 8.57242681 20.02768035 0 0 0
1480 1 10.41879566 8.57242681 20.03615034 0 0 0
1481 1 10.68256264 8.57242681 20.04460066 0 0 0
1482 1 10.94632962 8.57242681 20.05303149 0 0 0
1483 1 11.21009660 8.57242681 20.06144302 0 0 0
1484 1 11.47386358 8.57242681 20.06983541 0 0 0
1485 1 11.73763056 8.57242681 20.07820884 0 0 0
1486 1 0.13188349 8.83619379 20.08656350 0 0 0
1487 1 0.39565047 8.83619379 20.09489953 0 0 0
1488 1 0.65941745 8.83619379 20.10321713 0 0 0
1489 1 0.92318443 8.83619379 20.11151645 0 0 0
1490 1 1.18695140 8.83619379 20.11979766 0 0 0
1491 1 1.45071838 8.83619379 20.12806092 0 0 0
1492 1 1.71448536 8.83619379 20.13630641 0 0 0
1493 1 1.97825234 8.83619379 20.14453427 0 0 0
1494 1 2.24201932 8.83619379 20.15274467 0 0 0
1495 1 2.50578630 8.83619379 20.16093777 0 0 0
1496 1 2.76955328 8.83619379 20.16911372 0 0 0
1497 1 3.03332026 8.83619379 20.17727268 0 0 0
1498 1 3.29708723 8.83619379 20.18541480 0 0 0
1499 1 3.56085421 8.83619379 20.19354023 0 0 0
1500 1 3.82462119 8.83619379 20.20164912 0 0 0
1501 1 4.08838817 8.83619379 20.20974162 0 0 0
1502 1 4.35215515 8.83619379 20.21781788 0 0 0
1503 1 4.61592213 8.83619379 20.22587805 0 0 0
1504 1 4.87968911 8.83619379 20.23392226 0 0 0
1505 1 5.14345609 8.83619379 20.24195067 0 0 0
1506 1 5.40722306 8.83619379 20.24996340 0 0 0
1507 1 5.67099004 8.83619379 20.25796061 0 0 0
1508 1 5.93475702 8.83619379 20.26594243 0 0 0
1509 1 6.19852400 8.83619379 20.27390900 0 0 0
1510 1 6.46229098 8.83619379 20.28186046 0 0 0
1511 1 6.72605796 8.83619379 20.28979693 0 0 0
1512 1 6.98982494 8.83619379 20.29771856 0 0 0
1513 1 7.25359192 8.83619379 20.30562547 0 0 0
1514 1 7.51735890 8.83619379 20.31351780 0 0 0
1515 1 7.78112587 8.83619379 20.32139568 0 0 0
1516 1 8.04489285 8.83619379 20.32925923 0 0 0
1517 1 8.30865983 8.83619379 20.33710859 0 0 0
1518 1 8.57242681 8.83619379 20.34494388 0 0 0
1519 1 8.83619379 8.83619379 20.35276521 0 0 0
1520 1 9.09996077 8.83619379 20.36057273 0 0 0
1521 1 9.36372775 8.83619379 20.36836655 0 0 0
1522 1 9.62749473 8.83619379 20.37614679 0 0 0
1523 1 9.89126170 8.83619379 20.38391358 0 0 0
1524 1 10.15502868 8.83619379 20.39166703 0 0 0
1525 1 10.41879566 8.83619379 20.39940726 0 0 0
1526 1 10.68256264 8.83619379 20.40713439 0 0 0
1527 1 10.94632962 8.83619379 20.41484853 0 0 0
1528 1 11.21009660 8.83619379 20.42254981 0 0 0
1529 1 11.47386358 8.83619379 20.43023833 0 0 0
1530 1 11.73763056 8.83619379 20.43791421 0 0 0
1531 1 0.13188349 9.09996077 20.44557756 0 0 0
1532 1 0.39565047 9.09996077 20.45322849 0 0 0
1533 1 0.65941745 9.09996077 20.46086712 0 0 0
1534 1 0.92318443 9.09996077 20.46849354 0 0 0
1535 1 1.18695140 9.09996077 20.47610788 0 0 0
1536 1 1.45071838 9.09996077 20.48371023 0 0 0
1537 1 1.71448536 9.09996077 20.49130071 0 0 0
1538 1 1.97825234 9.09996077 20.49887942 0 0 0
1539 1 2.24201932 9.09996077 20.50644647 0 0 0
1540 1 2.50578630 9.09996077 20.51400195 0 0 0
1541 1 2.76955328 9.09996077 20.52154598 0 0 0
1542 1 3.03332026 9.09996077 20.52907865 0 0 0
1543 1 3.29708723 9.09996077 20.53660006 0 0 0
1544 1 3.56085421 9.09996077 20.54411032 0 0 0
1545 1 3.82462119 9.09996077 20.55160953 0 0 0
1546 1 4.08838817 9.09996077 20.55909778 0 0 0
1547 1 4.35215515 9.09996077 20.56657518 0 0 0
1548 1 4.61592213 9.09996077 20.57404181 0 0 0
1549 1 4.87968911 9.09996077 20.58149779 0 0 0
1550 1 5.14345609 9.09996077 20.58894319 0 0 0
1551 1 5.40722306 9.09996077 20.59637812 0 0 0
1552 1 5.67099004 9.09996077 20.60380268 0 0 0
1553 1 5.93475702 9.09996077 20.61121694 0 0 0
1554 1 6.19852400 9.09996077 20.61862102 0 0 0
1555 1 6.46229098 9.09996077 20.62601500 0 0 0
1556 1 6.72605796 9.09996077 20.63339896 0 0 0
1557 1 6.98982494 9.09996077 20.64077301 0 0 0
1558 1 7.25359192 9.09996077 20.64813723 0 0 0
1559 1 7.51735890 9.09996077 20.65549171 0 0 0
1560 1 7.78112587 9.09996077 20.66283654 0 0 0
1561 1 8.04489285 9.09996077 20.67017180 0 0 0
1562 1 8.30865983 9.09996077 20.67749759 0 0 0
1563 1 8.57242681 9.09996077 20.68481399 0 0 0
1564 1 8.83619379 9.09996077 20.69212109 0 0 0
1565 1 9.09996077 9.09996077 20.69941896 0 0 0
1566 1 9.36372775 9.09996077 20.70670770 0 0 0
1567 1 9.62749473 9.09996077 20.71398739 0 0 0
1568 1 9.89126170 9.09996077 20.72125812 0 0 0
1569 1 10.15502868 9.09996077 20.72851996 0 0 0
1570 1 10.41879566 9.09996077 20.73577299 0 0 0
1571 1 10.68256264 9.09996077 20.74301731 0 0 0
1572 1 10.94632962 9.09996077 20.75025299 0 0 0
1573 1 11.21009660 9.09996077 20.75748010 0 0 0
1574 1 11.47386358 9.09996077 20.76469874 0 0 0
1575 1 11.73763056 9.09996077 20.77190897 0 0 0
1576 1 0.13188349 9.36372775 20.77911088 0 0 0
1577 1 0.39565047 9.36372775 20.78630455 0 0 0
1578 1 0.65941745 9.36372775 20.79349005 0 0 0
1579 1 0.92318443 9.36372775 20.80066745 0 0 0
1580 1 1.18695140 9.36372775 20.80783685 0 0 0
1581 1 1.45071838 9.36372775 20.81499831 0 0 0
1582 1 1.71448536 9.36372775 20.82215190 0 0 0
1583 1 1.97825234 9.36372775 20.82929771 0 0 0
1584 1 2.24201932 9.36372775 20.83643580 0 0 0
1585 1 2.50578630 9.36372775 20.84356625 0 0 0
1586 1 2.76955328 9.36372775 20.85068914 0 0 0
1587 1 3.03332026 9.36372775 20.85780453 0 0 0
1588 1 3.29708723 9.36372775 20.86491250 0 0 0
1589 1 3.56085421 9.36372775 20.87201312 0 0 0
1590 1 3.82462119 9.36372775 20.87910646 0 0 0
1591 1 4.08838817 9.36372775 20.88619260 0 0 0
1592 1 4.35215515 9.36372775 20.89327159 0 0 0
1593 1 4.61592213 9.36372775 20.90034352 0 0 0
1594 1 4.87968911 9.36372775 20.90740846 0 0 0
1595 1 5.14345609 9.36372775 20.91446646 0 0 0
1596 1 5.40722306 9.36372775 20.92151760 0 0 0
1597 1 5.67099004 9.36372775 20.92856196 0 0 0
1598 1 5.93475702 9.36372775 20.93559958 0 0 0
1599 1 6.19852400 9.36372775 20.94263055 0 0 0
1600 1 6.46229098 9.36372775 20.94965493 0 0 0
1601 1 6.72605796 9.36372775 20.95667279 0 0 0
1602 1 6.98982494 9.36372775 20.96368419 0 0 0
1603 1 7.25359192 9.36372775 20.97068920 0 0 0
1604 1 7.51735890 9.36372775 20.97768788 0 0 0
1605 1 7.78112587 9.36372775 20.98468030 0 0 0
1606 1 8.04489285 9.36372775 20.99166653 0 0 0
1607 1 8.30865983 9.36372775 20.99864662 0 0 0
1608 1 8.57242681 9.36372775 21.00562064 0 0 0
1609 1 8.83619379 9.36372775 21.01258865 0 0 0
1610 1 9.09996077 9.36372775 21.01955072 0 0 0
1611 1 9.36372775 9.36372775 21.02650691 0 0 0
1612 1 9.62749473 9.36372775 21.03345729 0 0 0
1613 1 9.89126170 9.36372775 21.04040190 0 0 0
1614 1 10.15502868 9.36372775 21.04734082 0 0 0
1615 1 10.41879566 9.36372775 21.05427411 0 0 0
1616 1 10.68256264 9.36372775 21.06120182 0 0 0
1617 1 10.94632962 9.36372775 21.06812402 0 0 0
1618 1 11.21009660 9.36372775 21.07504077 0 0 0
1619 1 11.47386358 9.36372775 21.08195212 0 0 0
1620 1 11.73763056 9.36372775 21.08885814 0 0 0
1621 1 0.13188349 9.62749473 21.09575889 0 0 0
1622 1 0.39565047 9.62749473 21.10265442 0 0 0
1623 1 0.65941745 9.62749473 21.10954480 0 0 0
1624 1 0.92318443 9.62749473 21.11643007 0 0 0
1625 1 1.18695140 9.62749473 21.12331030 0 0 0
1626 1 1.45071838 9.62749473 21.13018555 0 0 0
1627 1 1.71448536 9.62749473 21.13705588 0 0 0
1628 1 1.97825234 9.62749473 21.14392133 0 0 0
1629 1 2.24201932 9.62749473 21.15078197 0 0 0
1630 1 2.50578630 9.62749473 21.15763785 0 0 0
1631 1 2.76955328 9.62749473 21.16448904 0 0 0
1632 1 3.03332026 9.62749473 21.17133557 0 0 0
1633 1 3.29708723 9.62749473 21.17817752 0 0 0
1634 1 3.56085421 9.62749473 21.18501494 0 0 0
1635 1 3.82462119 9.62749473 21.19184787 0 0 0
1636 1 4.08838817 9.62749473 21.19867638 0 0 0
1637 1 4.35215515 9.62749473 21.20550052 0 0 0
1638 1 4.61592213 9.62749473 21.21232034 0 0 0
1639 1 4.87968911 9.62749473 21.21913590 0 0 0
1640 1 5.14345609 9.62749473 21.22594725 0 0 0
1641 1 5.40722306 9.62749473 21.23275444 0 0 0
1642 1 5.67099004 9.62749473 21.23955753 0 0 0
1643 1 5.93475702 9.62749473 21.24635657 0 0 0
1644 1 6.19852400 9.62749473 21.25315162 0 0 0
1645 1 6.46229098 9.62749473 21.25994271 0 0 0
1646 1 6.72605796 9.62749473 21.26672992 0 0 0
1647 1 6.98982494 9.62749473 21.27351328 0 0 0
1648 1 7.25359192 9.62749473 21.28029285 0 0 0
1649 1 7.51735890 9.62749473 21.28706869 0 0 0
1650 1 7.78112587 9.62749473 21.29384083 0 0 0
1651 1 8.04489285 9.62749473 21.30060934 0 0 0
1652 1 8.30865983 9.62749473 21.30737427 0 0 0
1653 1 8.57242681 9.62749473 21.31413565 0 0 0
1654 1 8.83619379 9.62749473 21.32089356 0 0 0
1655 1 9.09996077 9.62749473 21.32764802 0 0 0
1656 1 9.36372775 9.62749473 21.33439910 0 0 0
1657 1 9.62749473 9.62749473 21.34114685 0 0 0
1658 1 9.89126170 9.62749473 21.34789130 0 0 0
1659 1 10.15502868 9.62749473 21.35463252 0 0 0
1660 1 10.41879566 9.62749473 21.36137055 0 0 0
1661 1 10.68256264 9.62749473 21.36810544 0 0 0
1662 1 10.94632962 9.62749473 21.37483724 0 0 0
1663 1 11.21009660 9.62749473 21.38156600 0 0 0
1664 1 11.47386358 9.62749473 21.38829176 0 0 0
1665 1 11.73763056 9.62749473 21.39501457 0 0 0
1666 1 0.13188349 9.89126170 21.40173448 0 0 0
1667 1 0.39565047 9.89126170 21.40845154 0 0 0
1668 1 0.65941745 9.89126170 21.41516579 0 0 0
1669 1 0.92318443 9.89126170 21.42187729 0 0 0
1670 1 1.18695140 9.89126170 21.42858608 0 0 0
1671 1 1.45071838 9.89126170 21.43529220 0 0 0
1672 1 1.71448536 9.89126170 21.44199571 0 0 0
1673 1 1.97825234 9.89126170 21.44869664 0 0 0
1674 1 2.24201932 9.89126170 21.45539505 0 0 0
1675 1 2.50578630 9.89126170 21.46209098 0 0 0
1676 1 2.76955328 9.89126170 21.46878448 0 0 0
1677 1 3.03332026 9.89126170 21.47547559 0 0 0
1678 1 3.29708723 9.89126170 21.48216437 0 0 0
1679 1 3.56085421 9.89126170 21.48885084 0 0 0
1680 1 3.82462119 9.89126170 21.49553507 0 0 0
1681 1 4.08838817 9.89126170 21.50221709 0 0 0
1682 1 4.35215515 9.89126170 21.50889695 0 0 0
1683 1 4.61592213 9.89126170 21.51557469 0 0 0
1684 1 4.87968911 9.89126170 21.52225036 0 0 0
1685 1 5.14345609 9.89126170 21.52892401 0 0 0
1686 1 5.40722306 9.89126170 21.53559568 0 0 0
1687 1 5.67099004 9.89126170 21.54226540 0 0 0
1688 1 5.93475702 9.89126170 21.54893324 0 0 0
1689 1 6.19852400 9.89126170 21.55559922 0 0 0
1690 1 6.46229098 9.89126170 21.56226340 0 0 0
1691 1 6.72605796 9.89126170 21.56892582 0 0 0
1692 1 6.98982494 9.89126170 21.57558651 0 0 0
1693 1 7.25359192 9.89126170 21.58224554 0 0 0
1694 1 7.51735890 9.89126170 21.58890293 0 0 0
1695 1 7.78112587 9.89126170 21.59555873 0 0 0
1696 1 8.04489285 9.89126170 21.60221298 0 0 0
1697 1 8.30865983 9.89126170 21.60886574 0 0 0
1698 1 8.57242681 9.89126170 21.61551703 0 0 0
1699 1 8.83619379 9.89126170 21.62216690 0 0 0
1700 1 9.09996077 9.89126170 21.62881540 0 0 0
1701 1 9.36372775 9.89126170 21.63546257 0 0 0
1702 1 9.62749473 9.89126170 21.64210844 0 0 0
1703 1 9.89126170 9.89126170 21.64875307 0 0 0
1704 1 10.15502868 9.89126170 21.65539649 0 0 0
1705 1 10.41879566 9.89126170 21.66203875 0 0 0
1706 1 10.68256264 9.89126170 21.66867988 0 0 0
1707 1 10.94632962 9.89126170 21.67531994 0 0 0
1708 1 11.21009660 9.89126170 21.68195895 0 0 0
1709 1 11.47386358 9.89126170 21.68859697 0 0 0
1710 1 11.73763056 9.89126170 21.69523403 0 0 0
1711 1 0.13188349 10.15502868 21.70187017 0 0 0
1712 1 0.39565047 10.15502868 21.70850544 0 0 0
1713 1 0.65941745 10.15502868 21.71513988 0 0 0
1714 1 0.92318443 10.15502868 21.72177352 0 0 0
1715 1 1.18695140 10.15502868 21.72840641 0 0 0
1716 1 1.45071838 10.15502868 21.73503860 0 0 0
1717 1 1.71448536 10.15502868 21.74167011 0 0 0
1718 1 1.97825234 10.15502868 21.74830099 0 0 0
1719 1 2.24201932 10.15502868 21.75493129 0 0 0
1720 1 2.50578630 10.15502868 21.76156103 0 0 0
1721 1 2.76955328 10.15502868 21.76819027 0 0 0
1722 1 3.03332026 10.15502868 21.77481904 0 0 0
1723 1 3.29708723 10.15502868 21.78144738 0 0 0
1724 1 3.56085421 10.15502868 21.78807534 0 0 0
1725 1 3.82462119 10.15502868 21.79470294 0 0 0
1726 1 4.08838817 10.15502868 21.80133024 0 0 0
1727 1 4.35215515 10.15502868 21.80795727 0 0 0
1728 1 4.61592213 10.15502868 21.81458407 0 0 0
1729 1 4.87968911 10.15502868 21.82121068 0 0 0
1730 1 5.14345609 10.15502868 21.82783715 0 0 0
1731 1 5.40722306 10.15502868 21.83446350 0 0 0
1732 1 5.67099004 10.15502868 21.84108978 0 0 0
1733 1 5.93475702 10.15502868 21.84771603 0 0 0
1734 1 6.19852400 10.15502868 21.85434229 0 0 0
1735 1 6.46229098 10.15502868 21.86096860 0 0 0
1736 1 6.72605796 10.15502868 21.86759499 0 0 0
1737 1 6.98982494 10.15502868 21.87422151 0 0 0
1738 1 7.25359192 10.15502868 21.88084819 0 0 0
1739 1 7.51735890 10.15502868 21.88747508 0 0 0
1740 1 7.78112587 10.15502868 21.89410221 0 0 0
1741 1 8.04489285 10.15502868 21.90072962 0 0 0
1742 1 8.30865983 10.15502868 21.90735735 0 0 0
1743 1 8.57242681 10.15502868 21.91398543 0 0 0
1744 1 8.83619379 10.15502868 21.92061392 0 0 0
1745 1 9.09996077 10.15502868 21.92724283 0 0 0
1746 1 9.36372775 10.15502868 21.93387223 0 0 0
1747 1 9.62749473 10.15502868 21.94050213 0 0 0
1748 1 9.89126170 10.15502868 21.94713259 0 0 0
1749 1 10.15502868 10.15502868 21.95376363 0 0 0
1750 1 10.41879566 10.15502868 21.96039530 0 0 0
1751 1 10.68256264 10.15502868 21.96702764 0 0 0
1752 1 10.94632962 10.15502868 21.97366067 0 0 0
1753 1 11.21009660 10.15502868 21.98029446 0 0 0
1754 1 11.47386358 10.15502868 21.98692902 0 0 0
1755 1 11.73763056 10.15502868 21.99356439 0 0 0
1756 1 0.13188349 10.41879566 22.00020063 0 0 0
1757 1 0.39565047 10.41879566 22.00683775 0 0 0
1758 1 0.65941745 10.41879566 22.01347581 0 0 0
1759 1 0.92318443 10.41879566 22.02011484 0 0 0
1760 1 1.18695140 10.41879566 22.02675487 0 0 0
1761 1 1.45071838 10.41879566 22.03339595 0 0 0
1762 1 1.71448536 10.41879566 22.04003810 0 0 0
1763 1 1.97825234 10.41879566 22.04668138 0 0 0
1764 1 2.24201932 10.41879566 22.05332582 0 0 0
1765 1 2.50578630 10.41879566 22.05997145 0 0 0
1766 1 2.76955328 10.41879566 22.06661831 0 0 0
1767 1 3.03332026 10.41879566 22.07326645 0 0 0
1768 1 3.29708723 10.41879566 22.07991589 0 0 0
1769 1 3.56085421 10.41879566 22.08656667 0 0 0
1770 1 3.82462119 10.41879566 22.09321884 0 0 0
1771 1 4.08838817 10.41879566 22.09987242 0 0 0
1772 1 4.35215515 10.41879566 22.10652746 0 0 0
1773 1 4.61592213 10.41879566 22.11318400 0 0 0
1774 1 4.87968911 10.41879566 22.11984207 0 0 0
1775 1 5.14345609 10.41879566 22.12650170 0 0 0
1776 1 5.40722306 10.41879566 22.13316294 0 0 0
1777 1 5.67099004 10.41879566 22.13982583 0 0 0
1778 1 5.93475702 10.41879566 22.14649039 0 0 0
1779 1 6.19852400 10.41879566 22.15315667 0 0 0
1780 1 6.46229098 10.41879566 22.15982470 0 0 0
1781 1 6.72605796 10.41879566 22.16649453 0 0 0
1782 1 6.98982494 10.41879566 22.17316618 0 0 0
1783 1 7.25359192 10.41879566 22.17983970 0 0 0
1784 1 7.51735890 10.41879566 22.18651511 0 0 0
1785 1 7.78112587 10.41879566 22.19319247 0 0 0
1786 1 8.04489285 10.41879566 22.19987180 0 0 0
1787 1 8.30865983 10.41879566 22.20655315 0 0 0
1788 1 8.57242681 10.41879566 22.21323655 0 0 0
1789 1 8.83619379 10.41879566 22.21992203 0 0 0
1790 1 9.09996077 10.41879566 22.22660963 0 0 0
1791 1 9.36372775 10.41879566 22.23329939 0 0 0
1792 1 9.62749473 10.41879566 22.23999135 0 0 0
1793 1 9.89126170 10.41879566 22.24668555 0 0 0
1794 1 10.15502868 10.41879566 22.25338201 0 0 0
1795 1 10.41879566 10.41879566 22.26008078 0 0 0
1796 1 10.68256264 10.41879566 22.26678190 0 0 0
1797 1 10.94632962 10.41879566 22.27348539 0 0 0
1798 1 11.21009660 10.41879566 22.28019130 0 0 0
1799 1 11.47386358 10.41879566 22.28689967 0 0 0
1800 1 11.73763056 10.41879566 22.29361053 0 0 0
1801 1 0.13188349 10.68256264 22.30032391 0 0 0
1802 1 0.39565047 10.68256264 22.30703986 0 0 0
1803 1 0.65941745 10.68256264 22.31375840 0 0 0
1804 1 0.92318443 10.68256264 22.32047959 0 0 0
1805 1 1.18695140 10.68256264 22.32720345 0 0 0
1806 1 1.45071838 10.68256264 22.33393001 0 0 0
1807 1 1.71448536 10.68256264 22.34065933 0 0 0
1808 1 1.97825234 10.68256264 22.34739143 0 0 0
1809 1 2.24201932 10.68256264 22.35412634 0 0 0
1810 1 2.50578630 10.68256264 22.36086412 0 0 0
1811 1 2.76955328 10.68256264 22.36760478 0 0 0
1812 1 3.03332026 10.68256264 22.37434838 0 0 0
1813 1 3.29708723 10.68256264 22.38109494 0 0 0
1814 1 3.56085421 10.68256264 22.38784451 0 0 0
1815 1 3.82462119 10.68256264 22.39459711 0 0 0
1816 1 4.08838817 10.68256264 22.40135280 0 0 0
1817 1 4.35215515 10.68256264 22.40811159 0 0 0
1818 1 4.61592213 10.68256264 22.41487353 0 0 0
1819 1 4.87968911 10.68256264 22.42163866 0 0 0
1820 1 5.14345609 10.68256264 22.42840701 0 0 0
1821 1 5.40722306 10.68256264 22.43517861 0 0 0
1822 1 5.67099004 10.68256264 22.44195352 0 0 0
1823 1 5.93475702 10.68256264 22.44873175 0 0 0
1824 1 6.19852400 10.68256264 22.45551335 0 0 0
1825 1 6.46229098 10.68256264 22.46229836 0 0 0
1826 1 6.72605796 10.68256264 22.46908680 0 0 0
1827 1 6.98982494 10.68256264 22.47587873 0 0 0
1828 1 7.25359192 10.68256264 22.48267416 0 0 0
1829 1 7.51735890 10.68256264 22.48947315 0 0 0
1830 1 7.78112587 10.68256264 22.49627573 0 0 0
1831 1 8.04489285 10.68256264 22.50308193 0 0 0
1832 1 8.30865983 10.68256264 22.50989178 0 0 0
1833 1 8.57242681 10.68256264 22.51670534 0 0 0
1834 1 8.83619379 10.68256264 22.52352263 0 0 0
1835 1 9.09996077 10.68256264 22.53034368 0 0 0
1836 1 9.36372775 10.68256264 22.53716855 0 0 0
1837 1 9.62749473 10.68256264 22.54399725 0 0 0
1838 1 9.89126170 10.68256264 22.55082983 0 0 0
1839 1 10.15502868 10.68256264 22.55766633 0 0 0
1840 1 10.41879566 10.68256264 22.56450679 0 0 0
1841 1 10.68256264 10.68256264 22.57135123 0 0 0
1842 1 10.94632962 10.68256264 22.57819969 0 0 0
1843 1 11.21009660 10.68256264 22.58505222 0 0 0
1844 1 11.47386358 10.68256264 22.59190884 0 0 0
1845 1 11.73763056 10.68256264 22.59876960 0 0 0
1846 1 0.13188349 10.94632962 22.60563453 0 0 0
1847 1 0.39565047 10.94632962 22.61250367 0 0 0
1848 1 0.65941745 10.94632962 22.61937705 0 0 0
1849 1 0.92318443 10.94632962 22.62625471 0 0 0
1850 1 1.18695140 10.94632962 22.63313669 0 0 0
1851 1 1.45071838 10.94632962 22.64002302 0 0 0
1852 1 1.71448536 10.94632962 22.64691375 0 0 0
1853 1 1.97825234 10.94632962 22.65380890 0 0 0
1854 1 2.24201932 10.94632962 22.66070851 0 0 0
1855 1 2.50578630 10.94632962 22.66761262 0 0 0
1856 1 2.76955328 10.94632962 22.67452127 0 0 0
1857 1 3.03332026 10.94632962 22.68143450 0 0 0
1858 1 3.29708723 10.94632962 22.68835233 0 0 0
1859 1 3.56085421 10.94632962 22.69527481 0 0 0
1860 1 3.82462119 10.94632962 22.70220197 0 0 0
1861 1 4.08838817 10.94632962 22.70913385 0 0 0
1862 1 4.35215515 10.94632962 22.71607048 0 0 0
1863 1 4.61592213 10.94632962 22.72301191 0 0 0
1864 1 4.87968911 10.94632962 22.72995817 0 0 0
1865 1 5.14345609 10.94632962 22.73690930 0 0 0
1866 1 5.40722306 10.94632962 22.74386532 0 0 0
1867 1 5.67099004 10.94632962 22.75082629 0 0 0
1868 1 5.93475702 10.94632962 22.75779222 0 0 0
1869 1 6.19852400 10.94632962 22.76476318 0 0 0
1870 1 6.46229098 10.94632962 22.77173918 0 0 0
1871 1 6.72605796 10.94632962 22.77872026 0 0 0
1872 1 6.98982494 10.94632962 22.78570647 0 0 0
1873 1 7.25359192 10.94632962 22.79269783 0 0 0
1874 1 7.51735890 10.94632962 22.79969439 0 0 0
1875 1 7.78112587 10.94632962 22.80669618 0 0 0
1876 1 8.04489285 10.94632962 22.81370324 0 0 0
1877 1 8.30865983 10.94632962 22.82071560 0 0 0
1878 1 8.57242681 10.94632962 22.82773331 0 0 0
1879 1 8.83619379 10.94632962 22.83475639 0 0 0
1880 1 9.09996077 10.94632962 22.84178489 0 0 0
1881 1 9.36372775 10.94632962 22.84881883 0 0 0
1882 1 9.62749473 10.94632962 22.85585827 0 0 0
1883 1 9.89126170 10.94632962 22.86290323 0 0 0
1884 1 10.15502868 10.94632962 22.86995374 0 0 0
1885 1 10.41879566 10.94632962 22.87700986 0 0 0
1886 1 10.68256264 10.94632962 22.88407161 0 0 0
1887 1 10.94632962 10.94632962 22.89113903 0 0 0
1888 1 11.21009660 10.94632962 22.89821215 0 0 0
1889 1 11.47386358 10.94632962 22.90529102 0 0 0
1890 1 11.73763056 10.94632962 22.91237567 0 0 0
1891 1 0.13188349 11.21009660 22.91946613 0 0 0
1892 1 0.39565047 11.21009660 22.92656245 0 0 0
1893 1 0.65941745 11.21009660 22.93366465 0 0 0
1894 1 0.92318443 11.21009660 22.94077278 0 0 0
1895 1 1.18695140 11.21009660 22.94788687 0 0 0
1896 1 1.45071838 11.21009660 22.95500696 0 0 0
1897 1 1.71448536 11.21009660 22.96213309 0 0 0
1898 1 1.97825234 11.21009660 22.96926528 0 0 0
1899 1 2.24201932 11.21009660 22.97640358 0 0 0
1900 1 2.50578630 11.21009660 22.98354803 0 0 0
1901 1 2.76955328 11.21009660 22.99069866 0 0 0
1902 1 3.03332026 11.21009660 22.99785550 0 0 0
1903 1 3.29708723 11.21009660 23.00501859 0 0 0
1904 1 3.56085421 11.21009660 23.01218798 0 0 0
1905 1 3.82462119 11.21009660 23.01936369 0 0 0
1906 1 4.08838817 11.21009660 23.02654576 0 0 0
1907 1 4.35215515 11.21009660 23.03373423 0 0 0
1908 1 4.61592213 11.21009660 23.04092913 0 0 0
1909 1 4.87968911 11.21009660 23.04813050 0 0 0
1910 1 5.14345609 11.21009660 23.05533838 0 0 0
1911 1 5.40722306 11.21009660 23.06255280 0 0 0
1912 1 5.67099004 11.21009660 23.06977380 0 0 0
1913 1 5.93475702 11.21009660 23.07700141 0 0 0
1914 1 6.19852400 11.21009660 23.08423567 0 0 0
1915 1 6.46229098 11.21009660 23.09147662 0 0 0
1916 1 6.72605796 11.21009660 23.09872430 0 0 0
1917 1 6.98982494 11.21009660 23.10597873 0 0 0
1918 1 7.25359192 11.21009660 23.11323995 0 0 0
1919 1 7.51735890 11.21009660 23.12050800 0 0 0
1920 1 7.78112587 11.21009660 23.12778292 0 0 0
1921 1 8.04489285 11.21009660 23.13506474 0 0 0
1922 1 8.30865983 11.21009660 23.14235350 0 0 0
1923 1 8.57242681 11.21009660 23.14964923 0 0 0
1924 1 8.83619379 11.21009660 23.15695197 0 0 0
1925 1 9.09996077 11.21009660 23.16426175 0 0 0
1926 1 9.36372775 11.21009660 23.17157861 0 0 0
1927 1 9.62749473 11.21009660 23.17890259 0 0 0
1928 1 9.89126170 11.21009660 23.18623372 0 0 0
1929 1 10.15502868 11.21009660 23.19357203 0 0 0
1930 1 10.41879566 11.21009660 23.20091756 0 0 0
1931 1 10.68256264 11.21009660 23.20827035 0 0 0
1932 1 10.94632962 11.21009660 23.21563043 0 0 0
1933 1 11.21009660 11.21009660 23.22299784 0 0 0
1934 1 11.47386358 11.21009660 23.23037261 0 0 0
1935 1 11.73763056 11.21009660 23.23775477 0 0 0
1936 1 0.13188349 11.47386358 23.24514437 0 0 0
1937 1 0.39565047 11.47386358 23.25254143 0 0 0
1938 1 0.65941745 11.47386358 23.25994600 0 0 0
1939 1 0.92318443 11.47386358 23.26735809 0 0 0
1940 1 1.18695140 11.47386358 23.27477776 0 0 0
1941 1 1.45071838 11.47386358 23.28220504 0 0 0
1942 1 1.71448536 11.47386358 23.28963995 0 0 0
1943 1 1.97825234 11.47386358 23.29708254 0 0 0
1944 1 2.24201932 11.47386358 23.30453283 0 0 0
1945 1 2.50578630 11.47386358 23.31199087 0 0 0
1946 1 2.76955328 11.47386358 23.31945668 0 0 0
1947 1 3.03332026 11.47386358 23.32693031 0 0 0
1948 1 3.29708723 11.47386358 23.33441178 0 0 0
1949 1 3.56085421 11.47386358 23.34190112 0 0 0
1950 1 3.82462119 11.47386358 23.34939838 0 0 0
1951 1 4.08838817 11.47386358 23.35690359 0 0 0
1952 1 4.35215515 11.47386358 23.36441677 0 0 0
1953 1 4.61592213 11.47386358 23.37193797 0 0 0
1954 1 4.87968911 11.47386358 23.37946721 0 0 0
1955 1 5.14345609 11.47386358 23.38700453 0 0 0
1956 1 5.40722306 11.47386358 23.39454996 0 0 0
1957 1 5.67099004 11.47386358 23.40210354 0 0 0
1958 1 5.93475702 11.47386358 23.40966530 0 0 0
1959 1 6.19852400 11.47386358 23.41723527 0 0 0
1960 1 6.46229098 11.47386358 23.42481348 0 0 0
1961 1 6.72605796 11.47386358 23.43239997 0 0 0
1962 1 6.98982494 11.47386358 23.43999476 0 0 0
1963 1 7.25359192 11.47386358 23.44759790 0 0 0
1964 1 7.51735890 11.47386358 23.45520941 0 0 0
1965 1 7.78112587 11.47386358 23.46282932 0 0 0
1966 1 8.04489285 11.47386358 23.47045768 0 0 0
1967 1 8.30865983 11.47386358 23.47809450 0 0 0
1968 1 8.57242681 11.47386358 23.48573982 0 0 0
1969 1 8.83619379 11.47386358 23.49339367 0 0 0
1970 1 9.09996077 11.47386358 23.50105608 0 0 0
1971 1 9.36372775 11.47386358 23.50872709 0 0 0
1972 1 9.62749473 11.47386358 23.51640672 0 0 0
1973 1 9.89126170 11.47386358 23.52409501 0 0 0
1974 1 10.15502868 11.47386358 23.53179199 0 0 0
1975 1 10.41879566 11.47386358 23.53949768 0 0 0
1976 1 10.68256264 11.47386358 23.54721212 0 0 0
1977 1 10.94632962 11.47386358 23.55493533 0 0 0
1978 1 11.21009660 11.47386358 23.56266736 0 0 0
1979 1 11.47386358 11.47386358 23.57040822 0 0 0
1980 1 11.73763056 11.47386358 23.57815794 0 0 0
1981 1 0.13188349 11.73763056 23.58591656 0 0 0
1982 1 0.39565047 11.73763056 23.59368411 0 0 0
1983 1 0.65941745 11.73763056 23.60146061 0 0 0
1984 1 0.92318443 11.73763056 23.60924609 0 0 0
1985 1 1.18695140 11.73763056 23.61704058 0 0 0
1986 1 1.45071838 11.73763056 23.62484411 0 0 0
1987 1 1.71448536 11.73763056 23.63265671 0 0 0
1988 1 1.97825234 11.73763056 23.64047841 0 0 0
1989 1 2.24201932 11.73763056 23.64830923 0 0 0
1990 1 2.50578630 11.73763056 23.65614920 0 0 0
1991 1 2.76955328 11.73763056 23.66399835 0 0 0
1992 1 3.03332026 11.73763056 23.67185670 0 0 0
1993 1 3.29708723 11.73763056 23.67972429 0 0 0
1994 1 3.56085421 11.73763056 23.68760113 0 0 0
1995 1 3.82462119 11.73763056 23.69548726 0 0 0
1996 1 4.08838817 11.73763056 23.70338270 0 0 0
1997 1 4.35215515 11.73763056 23.71128748 0 0 0
1998 1 4.61592213 11.73763056 23.71920161 0 0 0
1999 1 4.87968911 11.73763056 23.72712514 0 0 0
2000 1 5.14345609 11.73763056 23.73505808 0 0 0
